 VARIABLES = X,Y,DU1,DU2,U1,U2,S11,S22,S33,S12,SMISES,e11,e22,e12
 ZONE, T="0.1000D+01" F=FEPOINT, I=    9 J=    8
   0.0000000000E+00   0.0000000000E+00   0.0000000000E+00   0.0000000000E+00   0.0000000000E+00   0.0000000000E+00   0.5494505495E+01  -0.2223966218E-09   0.1648351648E+01   0.2543130812E-09   0.4883623307E+01   0.5000000001E-01  -0.2142857143E-01   0.3306070056E-11
   0.2100000000E+01   0.0000000000E+00   0.1000000000E+00   0.0000000000E+00   0.0000000000E+00   0.0000000000E+00   0.5494505495E+01  -0.1704782919E-09   0.1648351648E+01  -0.1452022853E-09   0.4883623307E+01   0.5000000001E-01  -0.2142857143E-01  -0.1887629709E-11
   0.2100000000E+01   0.1957142857E+01   0.1000000000E+00  -0.4285714285E-01   0.0000000000E+00   0.0000000000E+00   0.5494505495E+01   0.3399692210E-09   0.1648351649E+01  -0.1804279636E-09   0.4883623306E+01   0.5000000000E-01  -0.2142857143E-01  -0.2345563527E-11
   0.1050000000E+01   0.0000000000E+00   0.5000000000E-01   0.0000000000E+00   0.0000000000E+00   0.0000000000E+00   0.5494505494E+01   0.5045329057E-10   0.1648351648E+01   0.1381034105E-09   0.4883623306E+01   0.5000000000E-01  -0.2142857143E-01   0.1795344336E-11
   0.2100000000E+01   0.9785714286E+00   0.1000000000E+00  -0.2142857143E-01   0.0000000000E+00   0.0000000000E+00   0.5494505494E+01   0.2554710828E-09   0.1648351648E+01   0.1166411500E-09   0.4883623305E+01   0.4999999999E-01  -0.2142857142E-01   0.1516334950E-11
   0.1050000000E+01   0.9785714286E+00   0.5000000000E-01  -0.2142857143E-01   0.0000000000E+00   0.0000000000E+00   0.5494505495E+01   0.5878683843E-10   0.1648351649E+01   0.3694181757E-10   0.4883623307E+01   0.5000000001E-01  -0.2142857143E-01   0.4802436284E-12
   0.0000000000E+00   0.1957142857E+01   0.0000000000E+00  -0.4285714286E-01   0.0000000000E+00   0.0000000000E+00   0.5494505492E+01  -0.6466254000E-10   0.1648351647E+01  -0.8650340609E-10   0.4883623304E+01   0.4999999997E-01  -0.2142857142E-01  -0.1124544279E-11
   0.1050000000E+01   0.1957142857E+01   0.4999999999E-01  -0.4285714286E-01   0.0000000000E+00   0.0000000000E+00   0.5494505495E+01  -0.3307243054E-10   0.1648351648E+01  -0.4129230241E-09   0.4883623307E+01   0.5000000000E-01  -0.2142857143E-01  -0.5367999313E-11
   0.0000000000E+00   0.9785714286E+00   0.0000000000E+00  -0.2142857143E-01   0.0000000000E+00   0.0000000000E+00   0.5494505494E+01  -0.3904180123E-09   0.1648351648E+01   0.3567679097E-12   0.4883623306E+01   0.5000000000E-01  -0.2142857143E-01   0.4637982827E-14
           1           4           6           6
           4           2           5           5
           5           3           6           6
           4           5           6           6
           1           6           9           9
           6           3           8           8
           8           7           9           9
           6           8           9           9
 VARIABLES = X,Y,DU1,DU2,U1,U2,S11,S22,S33,S12,SMISES,e11,e22,e12
 ZONE, T="0.2000D+01" F=FEPOINT, I=    9 J=    8
   0.0000000000E+00   0.0000000000E+00   0.0000000000E+00   0.0000000000E+00   0.0000000000E+00   0.0000000000E+00   0.1098901099E+02  -0.4447964241E-09   0.3296703297E+01   0.5086248031E-09   0.9767246614E+01   0.1000000000E+00  -0.4285714287E-01   0.6612122441E-11
   0.2200000000E+01   0.0000000000E+00   0.1000000000E+00   0.0000000000E+00   0.1000000000E+00   0.0000000000E+00   0.1098901099E+02  -0.3409558685E-09   0.3296703297E+01  -0.2904054807E-09   0.9767246614E+01   0.1000000000E+00  -0.4285714286E-01  -0.3775271250E-11
   0.2200000000E+01   0.1914285714E+01   0.1000000000E+00  -0.4285714285E-01   0.1000000000E+00  -0.4285714285E-01   0.1098901099E+02   0.6799339609E-09   0.3296703297E+01  -0.3608549887E-09   0.9767246613E+01   0.1000000000E+00  -0.4285714286E-01  -0.4691114853E-11
   0.1100000000E+01   0.0000000000E+00   0.5000000000E-01   0.0000000000E+00   0.5000000000E-01   0.0000000000E+00   0.1098901099E+02   0.1009013469E-09   0.3296703297E+01   0.2762063304E-09   0.9767246612E+01   0.1000000000E+00  -0.4285714286E-01   0.3590682296E-11
   0.2200000000E+01   0.9571428571E+00   0.1000000000E+00  -0.2142857143E-01   0.1000000000E+00  -0.2142857143E-01   0.1098901099E+02   0.5109380834E-09   0.3296703296E+01   0.2332842286E-09   0.9767246610E+01   0.9999999998E-01  -0.4285714284E-01   0.3032694972E-11
   0.1100000000E+01   0.9571428571E+00   0.5000000000E-01  -0.2142857143E-01   0.5000000000E-01  -0.2142857143E-01   0.1098901099E+02   0.1175699855E-09   0.3296703297E+01   0.7388388411E-10   0.9767246613E+01   0.1000000000E+00  -0.4285714286E-01   0.9604904934E-12
   0.0000000000E+00   0.1914285714E+01   0.0000000000E+00  -0.4285714286E-01   0.0000000000E+00  -0.4285714286E-01   0.1098901098E+02  -0.1293239593E-09   0.3296703295E+01  -0.1730089822E-09   0.9767246607E+01   0.9999999995E-01  -0.4285714283E-01  -0.2249116769E-11
   0.1100000000E+01   0.1914285714E+01   0.4999999999E-01  -0.4285714286E-01   0.4999999999E-01  -0.4285714286E-01   0.1098901099E+02  -0.6614328283E-10   0.3296703297E+01  -0.8258483377E-09   0.9767246613E+01   0.1000000000E+00  -0.4285714286E-01  -0.1073602839E-10
   0.0000000000E+00   0.9571428571E+00   0.0000000000E+00  -0.2142857143E-01   0.0000000000E+00  -0.2142857143E-01   0.1098901099E+02  -0.7808359165E-09   0.3296703296E+01   0.7110027398E-12   0.9767246612E+01   0.9999999999E-01  -0.4285714286E-01   0.9243035618E-14
           1           4           6           6
           4           2           5           5
           5           3           6           6
           4           5           6           6
           1           6           9           9
           6           3           8           8
           8           7           9           9
           6           8           9           9
 VARIABLES = X,Y,DU1,DU2,U1,U2,S11,S22,S33,S12,SMISES,e11,e22,e12
 ZONE, T="0.3000D+01" F=FEPOINT, I=    9 J=    8
   0.0000000000E+00   0.0000000000E+00   0.0000000000E+00   0.0000000000E+00   0.0000000000E+00   0.0000000000E+00   0.1648351649E+02  -0.6671956333E-09   0.4945054945E+01   0.7629371049E-09   0.1465086992E+02   0.1500000000E+00  -0.6428571430E-01   0.9918182363E-11
   0.2300000000E+01   0.0000000000E+00   0.1000000000E+00   0.0000000000E+00   0.2000000000E+00   0.0000000000E+00   0.1648351649E+02  -0.5114346034E-09   0.4945054945E+01  -0.4356090856E-09   0.1465086992E+02   0.1500000000E+00  -0.6428571430E-01  -0.5662918113E-11
   0.2300000000E+01   0.1871428571E+01   0.1000000000E+00  -0.4285714285E-01   0.2000000000E+00  -0.8571428570E-01   0.1648351649E+02   0.1019898020E-08   0.4945054946E+01  -0.5412834066E-09   0.1465086992E+02   0.1500000000E+00  -0.6428571428E-01  -0.7036684286E-11
   0.1150000000E+01   0.0000000000E+00   0.5000000000E-01   0.0000000000E+00   0.1000000000E+00   0.0000000000E+00   0.1648351648E+02   0.1513538353E-09   0.4945054945E+01   0.4143101967E-09   0.1465086992E+02   0.1500000000E+00  -0.6428571428E-01   0.5386032557E-11
   0.2300000000E+01   0.9357142857E+00   0.1000000000E+00  -0.2142857143E-01   0.2000000000E+00  -0.4285714285E-01   0.1648351648E+02   0.7664083335E-09   0.4945054944E+01   0.3499264490E-09   0.1465086992E+02   0.1500000000E+00  -0.6428571427E-01   0.4549043837E-11
   0.1150000000E+01   0.9357142857E+00   0.5000000000E-01  -0.2142857143E-01   0.1000000000E+00  -0.4285714285E-01   0.1648351649E+02   0.1763530593E-09   0.4945054946E+01   0.1108257291E-09   0.1465086992E+02   0.1500000000E+00  -0.6428571429E-01   0.1440734478E-11
   0.0000000000E+00   0.1871428571E+01   0.0000000000E+00  -0.4285714286E-01   0.0000000000E+00  -0.8571428572E-01   0.1648351647E+02  -0.1939938402E-09   0.4945054942E+01  -0.2595125644E-09   0.1465086991E+02   0.1499999999E+00  -0.6428571425E-01  -0.3373663337E-11
   0.1150000000E+01   0.1871428571E+01   0.4999999999E-01  -0.4285714286E-01   0.9999999998E-01  -0.8571428572E-01   0.1648351648E+02  -0.9921703004E-10   0.4945054945E+01  -0.1238771083E-08   0.1465086992E+02   0.1500000000E+00  -0.6428571429E-01  -0.1610402407E-10
   0.0000000000E+00   0.9357142857E+00   0.0000000000E+00  -0.2142857143E-01   0.0000000000E+00  -0.4285714287E-01   0.1648351648E+02  -0.1171254229E-08   0.4945054944E+01   0.1066446922E-11   0.1465086992E+02   0.1500000000E+00  -0.6428571429E-01   0.1386380999E-13
           1           4           6           6
           4           2           5           5
           5           3           6           6
           4           5           6           6
           1           6           9           9
           6           3           8           8
           8           7           9           9
           6           8           9           9
