 VARIABLES = X,Y,DU1,DU2,U1,U2,S11,S22,S33,S12,SMISES,e11,e22,e12
 ZONE, T="0.1000D+01" F=FEPOINT, I=    9 J=    8
   0.0000000000E+00   0.0000000000E+00   0.0000000000E+00   0.0000000000E+00   0.0000000000E+00   0.0000000000E+00   0.5000000001E+01  -0.2426685193E-09   0.0000000000E+00   0.2106931968E-09   0.5000000001E+01   0.5000000001E-01  -0.1500000000E-01   0.2739011558E-11
   0.2100000000E+01   0.0000000000E+00   0.1000000000E+00   0.0000000000E+00   0.0000000000E+00   0.0000000000E+00   0.5000000000E+01  -0.1439003241E-09   0.0000000000E+00  -0.1623089683E-09   0.5000000001E+01   0.5000000001E-01  -0.1500000000E-01  -0.2110016588E-11
   0.2100000000E+01   0.1970000000E+01   0.1000000000E+00  -0.2999999999E-01   0.0000000000E+00   0.0000000000E+00   0.5000000001E+01   0.2975494329E-09   0.0000000000E+00  -0.1903246757E-09   0.5000000000E+01   0.5000000000E-01  -0.1500000000E-01  -0.2474220784E-11
   0.1050000000E+01   0.0000000000E+00   0.5000000000E-01   0.0000000000E+00   0.0000000000E+00   0.0000000000E+00   0.5000000000E+01   0.2090133327E-10   0.0000000000E+00   0.1234473874E-09   0.5000000000E+01   0.5000000000E-01  -0.1500000000E-01   0.1604816036E-11
   0.2100000000E+01   0.9850000000E+00   0.1000000000E+00  -0.1500000000E-01   0.0000000000E+00   0.0000000000E+00   0.4999999999E+01   0.3115531513E-09   0.0000000000E+00   0.1301995995E-09   0.4999999999E+01   0.4999999999E-01  -0.1499999999E-01   0.1692594794E-11
   0.1050000000E+01   0.9850000000E+00   0.5000000000E-01  -0.1500000000E-01   0.0000000000E+00   0.0000000000E+00   0.5000000001E+01   0.2743985237E-10   0.0000000000E+00   0.1018388962E-10   0.5000000001E+01   0.5000000001E-01  -0.1500000000E-01   0.1323905650E-12
   0.0000000000E+00   0.1970000000E+01   0.0000000000E+00  -0.3000000000E-01   0.0000000000E+00   0.0000000000E+00   0.4999999997E+01   0.3414207963E-10   0.0000000000E+00   0.1688661523E-10   0.4999999997E+01   0.4999999997E-01  -0.1499999999E-01   0.2195259979E-12
   0.1050000000E+01   0.1970000000E+01   0.4999999999E-01  -0.3000000000E-01   0.0000000000E+00   0.0000000000E+00   0.5000000000E+01  -0.6888373168E-10   0.0000000000E+00  -0.3932363527E-09   0.5000000000E+01   0.5000000000E-01  -0.1500000000E-01  -0.5112072585E-11
   0.0000000000E+00   0.9850000000E+00   0.0000000000E+00  -0.1500000000E-01   0.0000000000E+00   0.0000000000E+00   0.5000000000E+01  -0.3184482296E-09   0.0000000000E+00   0.1453360258E-10   0.5000000000E+01   0.5000000000E-01  -0.1500000000E-01   0.1889368335E-12
           1           4           6           6
           4           2           5           5
           5           3           6           6
           4           5           6           6
           1           6           9           9
           6           3           8           8
           8           7           9           9
           6           8           9           9
 VARIABLES = X,Y,DU1,DU2,U1,U2,S11,S22,S33,S12,SMISES,e11,e22,e12
 ZONE, T="0.2000D+01" F=FEPOINT, I=    9 J=    8
   0.0000000000E+00   0.0000000000E+00   0.0000000000E+00   0.0000000000E+00   0.0000000000E+00   0.0000000000E+00   0.1000000000E+02  -0.4853381159E-09   0.0000000000E+00   0.4213852106E-09   0.1000000000E+02   0.1000000000E+00  -0.3000000001E-01   0.5478007738E-11
   0.2200000000E+01   0.0000000000E+00   0.1000000000E+00   0.0000000000E+00   0.1000000000E+00   0.0000000000E+00   0.1000000000E+02  -0.2877991106E-09   0.0000000000E+00  -0.3246178701E-09   0.1000000000E+02   0.1000000000E+00  -0.3000000001E-01  -0.4220032311E-11
   0.2200000000E+01   0.1940000000E+01   0.1000000000E+00  -0.2999999999E-01   0.1000000000E+00  -0.2999999999E-01   0.1000000000E+02   0.5950954915E-09   0.0000000000E+00  -0.3806494547E-09   0.1000000000E+02   0.1000000000E+00  -0.3000000000E-01  -0.4948442911E-11
   0.1100000000E+01   0.0000000000E+00   0.5000000000E-01   0.0000000000E+00   0.5000000000E-01   0.0000000000E+00   0.1000000000E+02   0.4180047667E-10   0.0000000000E+00   0.2468943955E-09   0.1000000000E+02   0.1000000000E+00  -0.3000000000E-01   0.3209627141E-11
   0.2200000000E+01   0.9700000000E+00   0.1000000000E+00  -0.1500000000E-01   0.1000000000E+00  -0.1500000000E-01   0.9999999998E+01   0.6231025928E-09   0.0000000000E+00   0.2603984877E-09   0.9999999998E+01   0.9999999998E-01  -0.2999999999E-01   0.3385180341E-11
   0.1100000000E+01   0.9700000000E+00   0.5000000000E-01  -0.1500000000E-01   0.5000000000E-01  -0.1500000000E-01   0.1000000000E+02   0.5487826151E-10   0.0000000000E+00   0.2036762816E-10   0.1000000000E+02   0.1000000000E+00  -0.3000000000E-01   0.2647791661E-12
   0.0000000000E+00   0.1940000000E+01   0.0000000000E+00  -0.3000000000E-01   0.0000000000E+00  -0.3000000000E-01   0.9999999995E+01   0.6828490976E-10   0.0000000000E+00   0.3377321433E-10   0.9999999995E+01   0.9999999995E-01  -0.2999999998E-01   0.4390517864E-12
   0.1100000000E+01   0.1940000000E+01   0.4999999999E-01  -0.3000000000E-01   0.4999999999E-01  -0.3000000000E-01   0.1000000000E+02  -0.1377641541E-09   0.0000000000E+00  -0.7864715784E-09   0.1000000000E+02   0.1000000000E+00  -0.3000000000E-01  -0.1022413052E-10
   0.0000000000E+00   0.9700000000E+00   0.0000000000E+00  -0.1500000000E-01   0.0000000000E+00  -0.1500000000E-01   0.9999999999E+01  -0.6368951413E-09   0.0000000000E+00   0.2906689658E-10   0.9999999999E+01   0.9999999999E-01  -0.3000000000E-01   0.3778696555E-12
           1           4           6           6
           4           2           5           5
           5           3           6           6
           4           5           6           6
           1           6           9           9
           6           3           8           8
           8           7           9           9
           6           8           9           9
 VARIABLES = X,Y,DU1,DU2,U1,U2,S11,S22,S33,S12,SMISES,e11,e22,e12
 ZONE, T="0.3000D+01" F=FEPOINT, I=    9 J=    8
   0.0000000000E+00   0.0000000000E+00   0.0000000000E+00   0.0000000000E+00   0.0000000000E+00   0.0000000000E+00   0.1500000000E+02  -0.7280093075E-09   0.0000000000E+00   0.6320774241E-09   0.1500000000E+02   0.1500000000E+00  -0.4500000001E-01   0.8217006513E-11
   0.2300000000E+01   0.0000000000E+00   0.1000000000E+00   0.0000000000E+00   0.2000000000E+00   0.0000000000E+00   0.1500000000E+02  -0.4316996994E-09   0.0000000000E+00  -0.4869279522E-09   0.1500000000E+02   0.1500000000E+00  -0.4500000001E-01  -0.6330063378E-11
   0.2300000000E+01   0.1910000000E+01   0.1000000000E+00  -0.2999999999E-01   0.2000000000E+00  -0.5999999998E-01   0.1500000000E+02   0.8926460127E-09   0.0000000000E+00  -0.5709740670E-09   0.1500000000E+02   0.1500000000E+00  -0.4500000000E-01  -0.7422662871E-11
   0.1150000000E+01   0.0000000000E+00   0.5000000000E-01   0.0000000000E+00   0.1000000000E+00   0.0000000000E+00   0.1500000000E+02   0.6270215688E-10   0.0000000000E+00   0.3703428694E-09   0.1500000000E+02   0.1500000000E+00  -0.4500000000E-01   0.4814457302E-11
   0.2300000000E+01   0.9550000000E+00   0.1000000000E+00  -0.1500000000E-01   0.2000000000E+00  -0.2999999999E-01   0.1500000000E+02   0.9346528588E-09   0.0000000000E+00   0.3905985052E-09   0.1500000000E+02   0.1500000000E+00  -0.4499999998E-01   0.5077780567E-11
   0.1150000000E+01   0.9550000000E+00   0.5000000000E-01  -0.1500000000E-01   0.1000000000E+00  -0.3000000000E-01   0.1500000000E+02   0.8231837767E-10   0.0000000000E+00   0.3055042805E-10   0.1500000000E+02   0.1500000000E+00  -0.4500000000E-01   0.3971555646E-12
   0.0000000000E+00   0.1910000000E+01   0.0000000000E+00  -0.3000000000E-01   0.0000000000E+00  -0.6000000000E-01   0.1499999999E+02   0.1024270548E-09   0.0000000000E+00   0.5066062462E-10   0.1499999999E+02   0.1499999999E+00  -0.4499999998E-01   0.6585881201E-12
   0.1150000000E+01   0.1910000000E+01   0.4999999999E-01  -0.3000000000E-01   0.9999999998E-01  -0.6000000000E-01   0.1500000000E+02  -0.2066469354E-09   0.0000000000E+00  -0.1179707950E-08   0.1500000000E+02   0.1500000000E+00  -0.4500000000E-01  -0.1533620335E-10
   0.0000000000E+00   0.9550000000E+00   0.0000000000E+00  -0.1500000000E-01   0.0000000000E+00  -0.3000000001E-01   0.1500000000E+02  -0.9553444720E-09   0.0000000000E+00   0.4360082246E-10   0.1500000000E+02   0.1500000000E+00  -0.4500000001E-01   0.5668106920E-12
           1           4           6           6
           4           2           5           5
           5           3           6           6
           4           5           6           6
           1           6           9           9
           6           3           8           8
           8           7           9           9
           6           8           9           9
