 VARIABLES = X,Y,DU1,DU2,U1,U2,S11,S22,S33,S12
 ZONE, T="0.1000D+01" F=FEPOINT, I= 1061 J= 1000
   0.1776237646E-01   0.1342008462E+00   0.7359764910E-05  -0.3694976194E-04   0.0000000000E+00   0.0000000000E+00   0.4329304372E-01   0.7621884041E-02   0.0000000000E+00   0.7679652083E-03
   0.0000000000E+00   0.1332955643E+00   0.0000000000E+00  -0.3777570863E-04   0.0000000000E+00   0.0000000000E+00   0.4472579300E-01   0.8715693270E-02   0.0000000000E+00   0.7618158208E-04
   0.0000000000E+00   0.1166300590E+00   0.0000000000E+00  -0.3660795950E-04   0.0000000000E+00   0.0000000000E+00   0.5746619232E-01   0.8320893425E-02   0.0000000000E+00   0.5571149980E-04
   0.1916438324E-01   0.1162556531E+00   0.1024624290E-04  -0.3553493697E-04   0.0000000000E+00   0.0000000000E+00   0.5390777265E-01   0.7731134763E-02   0.0000000000E+00  -0.2482381131E-02
   0.8881217331E-02   0.1337480013E+00   0.3708991077E-05  -0.3757465114E-04   0.0000000000E+00   0.0000000000E+00   0.4416008978E-01   0.8359893547E-02   0.0000000000E+00   0.2978494679E-03
   0.0000000000E+00   0.1249627061E+00   0.0000000000E+00  -0.3729394253E-04   0.0000000000E+00   0.0000000000E+00   0.4975598572E-01   0.7896918372E-02   0.0000000000E+00   0.4661002260E-04
   0.9582259421E-02   0.1164425912E+00   0.5190920534E-05  -0.3633583345E-04   0.0000000000E+00   0.0000000000E+00   0.5568073742E-01   0.7946306103E-02   0.0000000000E+00  -0.1369742537E-02
   0.1846314009E-01   0.1252281722E+00   0.8562294589E-05  -0.3632376323E-04   0.0000000000E+00   0.0000000000E+00   0.4773568664E-01   0.7305943911E-02   0.0000000000E+00  -0.7954309628E-03
   0.7801986586E-01   0.2318418330E+00   0.1836665797E-04  -0.3456999271E-04   0.0000000000E+00   0.0000000000E+00   0.2639954650E-01  -0.1808595659E-04   0.0000000000E+00   0.2132438764E-02
   0.9780172882E-01   0.2320243388E+00   0.2372892436E-04  -0.3092322158E-04   0.0000000000E+00   0.0000000000E+00   0.2802896464E-01  -0.1081203620E-03   0.0000000000E+00   0.1929408663E-02
   0.9724292896E-01   0.2499674748E+00   0.2070506333E-04  -0.3252522533E-04   0.0000000000E+00   0.0000000000E+00   0.2744186100E-01   0.3974266606E-04   0.0000000000E+00   0.1098670873E-03
   0.7779341131E-01   0.2499639987E+00   0.1563070863E-04  -0.3600130767E-04   0.0000000000E+00   0.0000000000E+00   0.2475157906E-01   0.8288075212E-05   0.0000000000E+00   0.1243756924E-03
   0.8791075362E-01   0.2319330711E+00   0.2100781830E-04  -0.3276889885E-04   0.0000000000E+00   0.0000000000E+00   0.2721127949E-01  -0.7413692894E-04   0.0000000000E+00   0.1993370269E-02
   0.9752242567E-01   0.2409958912E+00   0.2231006950E-04  -0.3173180802E-04   0.0000000000E+00   0.0000000000E+00   0.2766899907E-01  -0.4662318529E-04   0.0000000000E+00   0.1032949356E-02
   0.8751811078E-01   0.2499657132E+00   0.1810477757E-04  -0.3428679245E-04   0.0000000000E+00   0.0000000000E+00   0.2610158643E-01   0.1652675856E-04   0.0000000000E+00   0.5936797634E-04
   0.7790673834E-01   0.2409029043E+00   0.1710214485E-04  -0.3529772590E-04   0.0000000000E+00   0.0000000000E+00   0.2556489736E-01  -0.8494927898E-05   0.0000000000E+00   0.1142435127E-02
   0.1910233260E-01   0.2332804852E+00   0.4142004875E-05  -0.4234376313E-04   0.0000000000E+00   0.0000000000E+00   0.2195128747E-01   0.2522427988E-03   0.0000000000E+00   0.8243095051E-03
   0.0000000000E+00   0.2332904161E+00   0.0000000000E+00  -0.4291789365E-04   0.0000000000E+00   0.0000000000E+00   0.2159138537E-01   0.2798460007E-03   0.0000000000E+00   0.1801150219E-04
   0.0000000000E+00   0.2166247860E+00   0.0000000000E+00  -0.4188304632E-04   0.0000000000E+00   0.0000000000E+00   0.2489603680E-01   0.1243312680E-02   0.0000000000E+00   0.1451302827E-04
   0.1853685865E-01   0.2167332887E+00   0.4563853798E-05  -0.4132432013E-04   0.0000000000E+00   0.0000000000E+00   0.2509547779E-01   0.1123260963E-02   0.0000000000E+00   0.1262561100E-02
   0.9551157810E-02   0.2332853014E+00   0.2062509789E-05  -0.4277260514E-04   0.0000000000E+00   0.0000000000E+00   0.2177878738E-01   0.3023550521E-03   0.0000000000E+00   0.4009057468E-03
   0.0000000000E+00   0.2249575925E+00   0.0000000000E+00  -0.4240148902E-04   0.0000000000E+00   0.0000000000E+00   0.2336659151E-01   0.8012950265E-03   0.0000000000E+00   0.1571508555E-04
   0.9268424550E-02   0.2166788974E+00   0.2277159540E-05  -0.4174355686E-04   0.0000000000E+00   0.0000000000E+00   0.2500536074E-01   0.1233111142E-02   0.0000000000E+00   0.6262571613E-03
   0.1881961896E-01   0.2250068852E+00   0.4377155925E-05  -0.4183582875E-04   0.0000000000E+00   0.0000000000E+00   0.2363270437E-01   0.7231550521E-03   0.0000000000E+00   0.1037998050E-02
   0.2572889577E+00   0.9227286460E-01   0.8347168670E-04  -0.1406400188E-05   0.0000000000E+00   0.0000000000E+00   0.1846181935E-01   0.1735955268E-02   0.0000000000E+00  -0.2584526047E-02
   0.2586835324E+00   0.1102837723E+00   0.8225444304E-04  -0.2157661385E-05   0.0000000000E+00   0.0000000000E+00   0.2017258877E-01   0.1263885232E-02   0.0000000000E+00  -0.2482566807E-02
   0.2419344050E+00   0.1106741189E+00   0.7887295949E-04  -0.2550134710E-05   0.0000000000E+00   0.0000000000E+00   0.2036729864E-01   0.6814776719E-03   0.0000000000E+00  -0.2916670793E-02
   0.2394603521E+00   0.9267960196E-01   0.8021613921E-04  -0.1716539788E-05   0.0000000000E+00   0.0000000000E+00   0.1849973403E-01   0.1101672066E-02   0.0000000000E+00  -0.3133209726E-02
   0.2579862628E+00   0.1012783402E+00   0.8286582278E-04  -0.1760756974E-05   0.0000000000E+00   0.0000000000E+00   0.1931914330E-01   0.1498727386E-02   0.0000000000E+00  -0.2534991179E-02
   0.2503089775E+00   0.1104789595E+00   0.8057253873E-04  -0.2339454431E-05   0.0000000000E+00   0.0000000000E+00   0.2027509096E-01   0.9938316483E-03   0.0000000000E+00  -0.2693489934E-02
   0.2406973816E+00   0.1016768837E+00   0.7954056930E-04  -0.2113264344E-05   0.0000000000E+00   0.0000000000E+00   0.1945214572E-01   0.8947210556E-03   0.0000000000E+00  -0.3025680620E-02
   0.2483746544E+00   0.9247624961E-01   0.8185038190E-04  -0.1548892412E-05   0.0000000000E+00   0.0000000000E+00   0.1848826130E-01   0.1440839501E-02   0.0000000000E+00  -0.2849759659E-02
   0.9245958386E-01   0.3825714657E-01   0.7163195769E-04  -0.1119602853E-04   0.0000000000E+00   0.0000000000E+00  -0.2851033925E-02  -0.1418820244E-01   0.0000000000E+00   0.5203579620E-02
   0.1081167476E+00   0.4609147855E-01   0.6988764262E-04  -0.7062945171E-05   0.0000000000E+00   0.0000000000E+00   0.4226058498E-02  -0.9767025695E-02   0.0000000000E+00  -0.3593744128E-02
   0.9617311043E-01   0.6353021001E-01   0.6201403197E-04  -0.1198469315E-04   0.0000000000E+00   0.0000000000E+00   0.1081784817E-01  -0.5405894341E-02   0.0000000000E+00  -0.5319058330E-02
   0.8321184697E-01   0.5554033395E-01   0.6488746696E-04  -0.1668975126E-04   0.0000000000E+00   0.0000000000E+00   0.3240716941E-03  -0.7158838368E-03   0.0000000000E+00  -0.2017189297E-03
   0.1002880776E+00   0.4217468871E-01   0.7067556217E-04  -0.8755191829E-05   0.0000000000E+00   0.0000000000E+00   0.1662016468E-02  -0.1049420476E-01   0.0000000000E+00  -0.2945692130E-04
   0.1021452547E+00   0.5481091803E-01   0.6628072374E-04  -0.9448173182E-05   0.0000000000E+00   0.0000000000E+00   0.7150952119E-02  -0.7484104767E-02   0.0000000000E+00  -0.4381404995E-02
   0.8969223799E-01   0.5953563941E-01   0.6321368757E-04  -0.1396788883E-04   0.0000000000E+00   0.0000000000E+00   0.6050240600E-02  -0.2981495198E-02   0.0000000000E+00  -0.3077523561E-02
   0.8826071609E-01   0.4712571503E-01   0.6858849145E-04  -0.1395936715E-04   0.0000000000E+00   0.0000000000E+00  -0.1913057355E-02  -0.7322002121E-02   0.0000000000E+00   0.3153618900E-02
   0.9815420558E-01   0.1950343198E-01   0.7567898029E-04  -0.5600419084E-05   0.0000000000E+00   0.0000000000E+00  -0.1771995561E-02  -0.2414007087E-01   0.0000000000E+00   0.4284945202E-02
   0.1000770719E+00   0.0000000000E+00   0.7707085351E-04   0.0000000000E+00   0.0000000000E+00   0.0000000000E+00  -0.9541609153E-03  -0.2933647510E-01   0.0000000000E+00   0.8498581767E-04
   0.1209113274E+00   0.0000000000E+00   0.7799735966E-04   0.0000000000E+00   0.0000000000E+00   0.0000000000E+00  -0.1922631182E-02  -0.1206846801E-01   0.0000000000E+00  -0.8336307319E-04
   0.1218065379E+00   0.2610961089E-01   0.7567385941E-04  -0.2697814797E-05   0.0000000000E+00   0.0000000000E+00   0.8170257708E-03  -0.9370864367E-02   0.0000000000E+00  -0.3161371297E-02
   0.9959520740E-01   0.9798884332E-02   0.7673690310E-04  -0.2830347902E-05   0.0000000000E+00   0.0000000000E+00  -0.1626458735E-02  -0.2762985574E-01   0.0000000000E+00   0.2654897045E-02
   0.1104943680E+00   0.0000000000E+00   0.7770197656E-04   0.0000000000E+00   0.0000000000E+00   0.0000000000E+00  -0.9923139840E-03  -0.1784239098E-01   0.0000000000E+00  -0.1538908658E-03
   0.1213595125E+00   0.1305473866E-01   0.7741146811E-04  -0.1415744244E-05   0.0000000000E+00   0.0000000000E+00  -0.8676667567E-03  -0.1080928650E-01   0.0000000000E+00  -0.1441562173E-02
   0.1099804656E+00   0.2280684087E-01   0.7577363333E-04  -0.3830629336E-05   0.0000000000E+00   0.0000000000E+00   0.2575694901E-04  -0.1488344295E-01   0.0000000000E+00  -0.1394939966E-04
   0.2106254180E+00   0.3763286764E-01   0.8127901609E-04  -0.3651602496E-06   0.0000000000E+00   0.0000000000E+00   0.1196209855E-01   0.1846603806E-02   0.0000000000E+00  -0.2867606834E-02
   0.1905369157E+00   0.3838192718E-01   0.7900565755E-04  -0.5732244971E-06   0.0000000000E+00   0.0000000000E+00   0.1074654284E-01   0.7388919348E-03   0.0000000000E+00  -0.3660490003E-02
   0.1867884310E+00   0.1901269122E-01   0.8027902417E-04  -0.2293806326E-06   0.0000000000E+00   0.0000000000E+00   0.8523454304E-02   0.1134749005E-02   0.0000000000E+00  -0.2095760438E-02
   0.2073144099E+00   0.1873789036E-01   0.8212794506E-04  -0.1335403423E-06   0.0000000000E+00   0.0000000000E+00   0.1034811512E-01   0.2214754881E-02   0.0000000000E+00  -0.1622180525E-02
   0.2005811474E+00   0.3800741194E-01   0.8012243390E-04  -0.4546623824E-06   0.0000000000E+00   0.0000000000E+00   0.1136769750E-01   0.1324399684E-02   0.0000000000E+00  -0.3224397926E-02
   0.1886627752E+00   0.2869733120E-01   0.7974418929E-04  -0.3792984568E-06   0.0000000000E+00   0.0000000000E+00   0.9510818331E-02   0.9027487470E-03   0.0000000000E+00  -0.2880664702E-02
   0.1970513890E+00   0.1887529869E-01   0.8116497154E-04  -0.1735055791E-06   0.0000000000E+00   0.0000000000E+00   0.9455481745E-02   0.1715133647E-02   0.0000000000E+00  -0.1832823323E-02
   0.2089699843E+00   0.2818539724E-01   0.8178126921E-04  -0.2311590708E-06   0.0000000000E+00   0.0000000000E+00   0.1105420213E-01   0.2008300985E-02   0.0000000000E+00  -0.2246781923E-02
   0.1574670157E+00   0.2159384902E+00   0.4366866765E-04  -0.1895781257E-04   0.0000000000E+00   0.0000000000E+00   0.3033174364E-01  -0.6292002111E-03   0.0000000000E+00   0.8280417477E-03
   0.1564938543E+00   0.2325847982E+00   0.4118329481E-04  -0.2070375374E-04   0.0000000000E+00   0.0000000000E+00   0.3115903882E-01  -0.1481296336E-03   0.0000000000E+00   0.5997677000E-03
   0.1370145386E+00   0.2326063064E+00   0.3516757350E-04  -0.2382758464E-04   0.0000000000E+00   0.0000000000E+00   0.3049435528E-01  -0.1593561267E-03   0.0000000000E+00   0.1053072205E-02
   0.1382529554E+00   0.2157907558E+00   0.3784536415E-04  -0.2201715420E-04   0.0000000000E+00   0.0000000000E+00   0.3009861850E-01  -0.6855467585E-03   0.0000000000E+00   0.1531302160E-02
   0.1569804570E+00   0.2242616398E+00   0.4244100899E-04  -0.1983519941E-04   0.0000000000E+00   0.0000000000E+00   0.3068677312E-01  -0.4070395654E-03   0.0000000000E+00   0.7206836863E-03
   0.1467541873E+00   0.2325956074E+00   0.3815926091E-04  -0.2221764845E-04   0.0000000000E+00   0.0000000000E+00   0.3082209015E-01  -0.1743686333E-03   0.0000000000E+00   0.8013355999E-03
   0.1376337655E+00   0.2241985223E+00   0.3653252874E-04  -0.2293069678E-04   0.0000000000E+00   0.0000000000E+00   0.3023844718E-01  -0.4402799956E-03   0.0000000000E+00   0.1298440638E-02
   0.1478599728E+00   0.2158646658E+00   0.4075179788E-04  -0.2043718782E-04   0.0000000000E+00   0.0000000000E+00   0.3021000644E-01  -0.6821562088E-03   0.0000000000E+00   0.1153163971E-02
   0.0000000000E+00   0.9996599766E-01   0.0000000000E+00  -0.3400333501E-04   0.0000000000E+00   0.0000000000E+00   0.8115759287E-01   0.1323506085E-02   0.0000000000E+00   0.1471407413E-03
   0.1952473335E-01   0.9804545323E-01   0.1570095481E-04  -0.3307336991E-04   0.0000000000E+00   0.0000000000E+00   0.7275983730E-01   0.2901741592E-02   0.0000000000E+00  -0.1359266347E-01
   0.9809612501E-02   0.9948468362E-01   0.7897821329E-05  -0.3378688074E-04   0.0000000000E+00   0.0000000000E+00   0.7891741678E-01   0.1896549386E-02   0.0000000000E+00  -0.7429199995E-02
   0.1934399246E-01   0.1071502998E+00   0.1240685820E-04  -0.3455715955E-04   0.0000000000E+00   0.0000000000E+00   0.6132300904E-01   0.5143993587E-02   0.0000000000E+00  -0.7246347027E-02
   0.0000000000E+00   0.1082977233E+00   0.0000000000E+00  -0.3561072661E-04   0.0000000000E+00   0.0000000000E+00   0.6617351788E-01   0.4239019100E-02   0.0000000000E+00   0.4580115668E-04
   0.1680498654E-01   0.1512988339E+00   0.5927742956E-05  -0.3788106086E-04   0.0000000000E+00   0.0000000000E+00   0.3725056447E-01   0.6691961040E-02   0.0000000000E+00   0.1485200360E-02
   0.0000000000E+00   0.1499614895E+00   0.0000000000E+00  -0.3851645502E-04   0.0000000000E+00   0.0000000000E+00   0.3791355859E-01   0.7437002067E-02   0.0000000000E+00   0.1909342221E-04
   0.1728359108E-01   0.1427498106E+00   0.6553380143E-05  -0.3743740546E-04   0.0000000000E+00   0.0000000000E+00   0.3986805285E-01   0.6970211891E-02   0.0000000000E+00   0.1067916977E-02
   0.8402509498E-02   0.1506299845E+00   0.2980117935E-05  -0.3836853616E-04   0.0000000000E+00   0.0000000000E+00   0.3761221867E-01   0.7193496665E-02   0.0000000000E+00   0.7207415279E-03
   0.0000000000E+00   0.1416285134E+00   0.0000000000E+00  -0.3816764391E-04   0.0000000000E+00   0.0000000000E+00   0.4076818328E-01   0.7758439150E-02   0.0000000000E+00   0.5116458375E-04
   0.5107404427E-01   0.1386378889E+00   0.1973417048E-04  -0.3175110359E-04   0.0000000000E+00   0.0000000000E+00   0.3779990102E-01   0.2578782326E-02   0.0000000000E+00   0.2237019504E-02
   0.4906385127E-01   0.1540265288E+00   0.1694747149E-04  -0.3344724205E-04   0.0000000000E+00   0.0000000000E+00   0.3526000431E-01   0.2627719666E-02   0.0000000000E+00   0.3305374776E-02
   0.3318704048E-01   0.1527003895E+00   0.1157578080E-04  -0.3606548873E-04   0.0000000000E+00   0.0000000000E+00   0.3625682004E-01   0.4857066145E-02   0.0000000000E+00   0.2647410439E-02
   0.3438532457E-01   0.1357049894E+00   0.1384796527E-04  -0.3479858455E-04   0.0000000000E+00   0.0000000000E+00   0.4044028709E-01   0.5347441517E-02   0.0000000000E+00   0.1591944681E-02
   0.5006883591E-01   0.1463321856E+00   0.1822711405E-04  -0.3262243050E-04   0.0000000000E+00   0.0000000000E+00   0.3661391070E-01   0.2695867545E-02   0.0000000000E+00   0.2765364987E-02
   0.4112545992E-01   0.1533633747E+00   0.1427382263E-04  -0.3484128727E-04   0.0000000000E+00   0.0000000000E+00   0.3576329293E-01   0.3790829524E-02   0.0000000000E+00   0.3002742906E-02
   0.3378605102E-01   0.1442026647E+00   0.1258032462E-04  -0.3544928244E-04   0.0000000000E+00   0.0000000000E+00   0.3830344654E-01   0.5153373171E-02   0.0000000000E+00   0.2037005921E-02
   0.4272972171E-01   0.1371713417E+00   0.1682840918E-04  -0.3336525083E-04   0.0000000000E+00   0.0000000000E+00   0.3914203401E-01   0.3941065934E-02   0.0000000000E+00   0.1713513351E-02
   0.1668995288E-01   0.1677644762E+00   0.5286577683E-05  -0.3866178194E-04   0.0000000000E+00   0.0000000000E+00   0.3329005372E-01   0.5180632474E-02   0.0000000000E+00   0.1650424452E-02
   0.0000000000E+00   0.1666274619E+00   0.0000000000E+00  -0.3921014406E-04   0.0000000000E+00   0.0000000000E+00   0.3355765752E-01   0.5775057867E-02   0.0000000000E+00   0.2508640828E-04
   0.8344981994E-02   0.1671958153E+00   0.2648853544E-05  -0.3908270117E-04   0.0000000000E+00   0.0000000000E+00   0.3346340931E-01   0.5608027052E-02   0.0000000000E+00   0.8111476904E-03
   0.0000000000E+00   0.1582944733E+00   0.0000000000E+00  -0.3885773460E-04   0.0000000000E+00   0.0000000000E+00   0.3549506727E-01   0.6475493017E-02   0.0000000000E+00   0.2397674861E-04
   0.1674743645E-01   0.1595316519E+00   0.5573950731E-05  -0.3826714872E-04   0.0000000000E+00   0.0000000000E+00   0.3507824677E-01   0.5843036662E-02   0.0000000000E+00   0.1534937009E-02
   0.1709644269E-01   0.1840860601E+00   0.4980287285E-05  -0.3946793105E-04   0.0000000000E+00   0.0000000000E+00   0.3033266409E-01   0.3696754128E-02   0.0000000000E+00   0.1623140817E-02
   0.3340107791E-01   0.1685698983E+00   0.1056711111E-04  -0.3699373899E-04   0.0000000000E+00   0.0000000000E+00   0.3304283163E-01   0.3850808393E-02   0.0000000000E+00   0.2975694389E-02
   0.3452340511E-01   0.1842414082E+00   0.1010301177E-04  -0.3782484591E-04   0.0000000000E+00   0.0000000000E+00   0.3047698826E-01   0.2753357444E-02   0.0000000000E+00   0.2962318180E-02
   0.1689318584E-01   0.1759252734E+00   0.5122444002E-05  -0.3905263760E-04   0.0000000000E+00   0.0000000000E+00   0.3172830158E-01   0.4400303778E-02   0.0000000000E+00   0.1618888197E-02
   0.2504551410E-01   0.1681670694E+00   0.7925502053E-05  -0.3795362184E-04   0.0000000000E+00   0.0000000000E+00   0.3320058843E-01   0.4626339048E-02   0.0000000000E+00   0.2292192151E-02
   0.3396222754E-01   0.1764056680E+00   0.1031923594E-04  -0.3740199698E-04   0.0000000000E+00   0.0000000000E+00   0.3170914287E-01   0.3292926232E-02   0.0000000000E+00   0.2946801559E-02
   0.2580991421E-01   0.1841636005E+00   0.7532908943E-05  -0.3877246437E-04   0.0000000000E+00   0.0000000000E+00   0.3042376415E-01   0.3299245911E-02   0.0000000000E+00   0.2293278880E-02
   0.1944785873E-01   0.2499566919E+00   0.3413634832E-05  -0.4330811791E-04   0.0000000000E+00   0.0000000000E+00   0.1784058730E-01  -0.1000001989E-03   0.0000000000E+00   0.5226118310E-04
   0.3848632636E-01   0.2329036462E+00   0.8510664523E-05  -0.4063384994E-04   0.0000000000E+00   0.0000000000E+00   0.2305151065E-01   0.1859108250E-03   0.0000000000E+00   0.1521891950E-02
   0.3889593995E-01   0.2499583310E+00   0.7049648243E-05  -0.4166904321E-04   0.0000000000E+00   0.0000000000E+00   0.1952865644E-01  -0.7288842920E-04   0.0000000000E+00   0.9290252473E-04
   0.1927513641E-01   0.2416185706E+00   0.3818505861E-05  -0.4284442967E-04   0.0000000000E+00   0.0000000000E+00   0.2008794531E-01   0.1165975536E-03   0.0000000000E+00   0.4431667705E-03
   0.2879430249E-01   0.2330919360E+00   0.6298392780E-05  -0.4161803962E-04   0.0000000000E+00   0.0000000000E+00   0.2250630151E-01   0.2512967247E-03   0.0000000000E+00   0.1147929004E-02
   0.3869120872E-01   0.2414309717E+00   0.7853824579E-05  -0.4116834707E-04   0.0000000000E+00   0.0000000000E+00   0.2142545729E-01   0.8458045912E-04   0.0000000000E+00   0.8174471588E-03
   0.2917186122E-01   0.2499573861E+00   0.5192520584E-05  -0.4261393285E-04   0.0000000000E+00   0.0000000000E+00   0.1867726278E-01  -0.6589878168E-04   0.0000000000E+00   0.3488688573E-04
   0.2499602822E-01   0.1519994708E+00   0.8766516931E-05  -0.3710624352E-04   0.0000000000E+00   0.0000000000E+00   0.3675339474E-01   0.5802103597E-02   0.0000000000E+00   0.2055584958E-02
   0.3329401073E-01   0.1606351517E+00   0.1102293190E-04  -0.3652926902E-04   0.0000000000E+00   0.0000000000E+00   0.3458011165E-01   0.4342636518E-02   0.0000000000E+00   0.2762552060E-02
   0.3292638470E+00   0.0000000000E+00   0.9716599975E-04   0.0000000000E+00   0.0000000000E+00   0.0000000000E+00   0.1490113299E-01   0.4457668417E-02   0.0000000000E+00  -0.1597664021E-05
   0.3500999940E+00   0.0000000000E+00   0.1000000000E-03   0.0000000000E+00   0.0000000000E+00   0.0000000000E+00   0.1499021169E-01   0.4490580414E-02   0.0000000000E+00  -0.4299091169E-06
   0.3500999940E+00   0.1923075625E-01   0.1000000000E-03  -0.1364793052E-07   0.0000000000E+00   0.0000000000E+00   0.1516942585E-01   0.4413224872E-02   0.0000000000E+00  -0.5247235113E-06
   0.3298599944E+00   0.1871453130E-01   0.9720739830E-04  -0.1399512518E-07   0.0000000000E+00   0.0000000000E+00   0.1507955716E-01   0.4384713663E-02   0.0000000000E+00  -0.1589957785E-03
   0.3396819180E+00   0.0000000000E+00   0.9858097942E-04   0.0000000000E+00   0.0000000000E+00   0.0000000000E+00   0.1494600143E-01   0.4475732044E-02   0.0000000000E+00  -0.1490769398E-05
   0.3500999940E+00   0.9615381266E-02   0.1000000000E-03  -0.3703679242E-08   0.0000000000E+00   0.0000000000E+00   0.1502564432E-01   0.4436920304E-02   0.0000000000E+00   0.3595168319E-07
   0.3399799914E+00   0.1897264408E-01   0.9860138934E-04  -0.1351508110E-07   0.0000000000E+00   0.0000000000E+00   0.1512486863E-01   0.4401090416E-02   0.0000000000E+00  -0.7981252725E-04
   0.3295619304E+00   0.9357268575E-02   0.9719639113E-04  -0.4075448764E-08   0.0000000000E+00   0.0000000000E+00   0.1493574291E-01   0.4405952587E-02   0.0000000000E+00  -0.7963280635E-04
   0.3500999940E+00   0.3846146305E-01   0.1000000000E-03  -0.7685153289E-07   0.0000000000E+00   0.0000000000E+00   0.1569716062E-01   0.4187855910E-02   0.0000000000E+00  -0.2708457143E-06
   0.3303029813E+00   0.3768295658E-01   0.9715334598E-04  -0.7592388220E-07   0.0000000000E+00   0.0000000000E+00   0.1560278161E-01   0.4164415502E-02   0.0000000000E+00  -0.2966202048E-03
   0.3500999940E+00   0.2884611978E-01   0.1000000000E-03  -0.3611923548E-07   0.0000000000E+00   0.0000000000E+00   0.1538221858E-01   0.4286095588E-02   0.0000000000E+00  -0.4674720305E-06
   0.3402014847E+00   0.3807221242E-01   0.9857373116E-04  -0.7557873884E-07   0.0000000000E+00   0.0000000000E+00   0.1565104137E-01   0.4180157008E-02   0.0000000000E+00  -0.1487874404E-03
   0.3300814960E+00   0.2819875369E-01   0.9718902559E-04  -0.3611120029E-07   0.0000000000E+00   0.0000000000E+00   0.1528961131E-01   0.4260043841E-02   0.0000000000E+00  -0.2277303682E-03
   0.3306555312E+00   0.5676249363E-01   0.9702220808E-04  -0.2314689357E-06   0.0000000000E+00   0.0000000000E+00   0.1644328000E-01   0.3816161566E-02   0.0000000000E+00  -0.4040626897E-03
   0.3309344953E+00   0.7595612978E-01   0.9682825743E-04  -0.5203174655E-06   0.0000000000E+00   0.0000000000E+00   0.1755494491E-01   0.3370368681E-02   0.0000000000E+00  -0.4756522411E-03
   0.3119052443E+00   0.7514497094E-01   0.9370733604E-04  -0.5418552751E-06   0.0000000000E+00   0.0000000000E+00   0.1741452803E-01   0.3258478448E-02   0.0000000000E+00  -0.9522873209E-03
   0.3112389970E+00   0.5605295471E-01   0.9407902322E-04  -0.2441891547E-06   0.0000000000E+00   0.0000000000E+00   0.1625852139E-01   0.3710779113E-02   0.0000000000E+00  -0.8119829671E-03
   0.3307950037E+00   0.6635932654E-01   0.9693065678E-04  -0.3573580699E-06   0.0000000000E+00   0.0000000000E+00   0.1696311436E-01   0.3582679352E-02   0.0000000000E+00  -0.4403648526E-03
   0.3214198509E+00   0.7555054980E-01   0.9526386897E-04  -0.5279030990E-06   0.0000000000E+00   0.0000000000E+00   0.1748780022E-01   0.3324444462E-02   0.0000000000E+00  -0.7119931824E-03
   0.3115721307E+00   0.6559897790E-01   0.9390366115E-04  -0.3741998144E-06   0.0000000000E+00   0.0000000000E+00   0.1680017755E-01   0.3474032450E-02   0.0000000000E+00  -0.8836285734E-03
   0.3209472589E+00   0.5640772597E-01   0.9554589392E-04  -0.2360305565E-06   0.0000000000E+00   0.0000000000E+00   0.1635307491E-01   0.3770645225E-02   0.0000000000E+00  -0.6060443158E-03
   0.3310789303E+00   0.9525502749E-01   0.9657325277E-04  -0.9733139228E-06   0.0000000000E+00   0.0000000000E+00   0.1887900776E-01   0.2863075239E-02   0.0000000000E+00  -0.5125766690E-03
   0.3122818670E+00   0.9439961400E-01   0.9321199153E-04  -0.1007999475E-05   0.0000000000E+00   0.0000000000E+00   0.1878309979E-01   0.2745943968E-02   0.0000000000E+00  -0.1021744245E-02
   0.3310067317E+00   0.8560559655E-01   0.9670469340E-04  -0.7251499105E-06   0.0000000000E+00   0.0000000000E+00   0.1819117210E-01   0.3108893377E-02   0.0000000000E+00  -0.4946263936E-03
   0.3216803956E+00   0.9482732199E-01   0.9488956178E-04  -0.9856129139E-06   0.0000000000E+00   0.0000000000E+00   0.1883482092E-01   0.2816941183E-02   0.0000000000E+00  -0.7653888014E-03
   0.3120935632E+00   0.8477231077E-01   0.9346717393E-04  -0.7529276206E-06   0.0000000000E+00   0.0000000000E+00   0.1807311689E-01   0.2994413005E-02   0.0000000000E+00  -0.9883702651E-03
   0.3310650577E+00   0.1147079508E+00   0.9626071748E-04  -0.1613188114E-05   0.0000000000E+00   0.0000000000E+00   0.2035611041E-01   0.2329821239E-02   0.0000000000E+00  -0.5193473049E-03
   0.3309235867E+00   0.1342725840E+00   0.9590368000E-04  -0.2450047219E-05   0.0000000000E+00   0.0000000000E+00   0.2192186556E-01   0.1804885068E-02   0.0000000000E+00  -0.5009028891E-03
   0.3118896996E+00   0.1337911372E+00   0.9184261400E-04  -0.2544819224E-05   0.0000000000E+00   0.0000000000E+00   0.2193388340E-01   0.1680549079E-02   0.0000000000E+00  -0.9904948620E-03
   0.3122785917E+00   0.1139338533E+00   0.9258865757E-04  -0.1669669854E-05   0.0000000000E+00   0.0000000000E+00   0.2030918099E-01   0.2208029185E-02   0.0000000000E+00  -0.1030525984E-02
   0.3309943089E+00   0.1244902956E+00   0.9608386233E-04  -0.2007375682E-05   0.0000000000E+00   0.0000000000E+00   0.2113309845E-01   0.2065182858E-02   0.0000000000E+00  -0.5101929559E-03
   0.3214066583E+00   0.1340318779E+00   0.9387332126E-04  -0.2487073531E-05   0.0000000000E+00   0.0000000000E+00   0.2193258341E-01   0.1757673534E-02   0.0000000000E+00  -0.7445016869E-03
   0.3120841494E+00   0.1238625240E+00   0.9221940322E-04  -0.2082048813E-05   0.0000000000E+00   0.0000000000E+00   0.2111584383E-01   0.1941960540E-02   0.0000000000E+00  -0.1010860724E-02
   0.3216718229E+00   0.1143209090E+00   0.9442285439E-04  -0.1634011698E-05   0.0000000000E+00   0.0000000000E+00   0.2033678882E-01   0.2283115276E-02   0.0000000000E+00  -0.7735157423E-03
   0.2890872720E+00   0.1826414906E-01   0.9170799272E-04  -0.2354311559E-07   0.0000000000E+00   0.0000000000E+00   0.1439117298E-01   0.4114543093E-02   0.0000000000E+00  -0.4954071714E-03
   0.2875916296E+00   0.0000000000E+00   0.9163562282E-04   0.0000000000E+00   0.0000000000E+00   0.0000000000E+00   0.1415172664E-01   0.4184211690E-02   0.0000000000E+00  -0.6033754136E-05
   0.3084277031E+00   0.0000000000E+00   0.9436607135E-04   0.0000000000E+00   0.0000000000E+00   0.0000000000E+00   0.1462481968E-01   0.4357807226E-02   0.0000000000E+00  -0.3659787119E-05
   0.3094820521E+00   0.1840623617E-01   0.9442810722E-04  -0.1712520671E-07   0.0000000000E+00   0.0000000000E+00   0.1482347746E-01   0.4287249360E-02   0.0000000000E+00  -0.3203067834E-03
   0.2883394652E+00   0.9132077641E-02   0.9170120964E-04  -0.8658849060E-08   0.0000000000E+00   0.0000000000E+00   0.1421050448E-01   0.4133004632E-02   0.0000000000E+00  -0.2488757742E-03
   0.2980096408E+00   0.0000000000E+00   0.9298977011E-04   0.0000000000E+00   0.0000000000E+00   0.0000000000E+00   0.1438867333E-01   0.4273468796E-02   0.0000000000E+00  -0.3552311226E-05
   0.3089548973E+00   0.9203121021E-02   0.9441625417E-04  -0.5628832717E-08   0.0000000000E+00   0.0000000000E+00   0.1466882504E-01   0.4307161521E-02   0.0000000000E+00  -0.1607764874E-03
   0.2992846522E+00   0.1833519212E-01   0.9305819540E-04  -0.1988257781E-07   0.0000000000E+00   0.0000000000E+00   0.1460803326E-01   0.4204061385E-02   0.0000000000E+00  -0.4051013236E-03
   0.2122731539E+00   0.1636827914E+00   0.6594092398E-04  -0.7820578340E-05   0.0000000000E+00   0.0000000000E+00   0.2617584068E-01  -0.9687337557E-03   0.0000000000E+00  -0.1800230591E-02
   0.2163775150E+00   0.1467631521E+00   0.6902600468E-04  -0.6102880721E-05   0.0000000000E+00   0.0000000000E+00   0.2458392322E-01  -0.8996225517E-03   0.0000000000E+00  -0.2397874284E-02
   0.2310276005E+00   0.1467303839E+00   0.7262552779E-04  -0.5314084999E-05   0.0000000000E+00   0.0000000000E+00   0.2414436632E-01  -0.3432571747E-03   0.0000000000E+00  -0.2328370930E-02
   0.2322203089E+00   0.1630986441E+00   0.7119991221E-04  -0.6530929652E-05   0.0000000000E+00   0.0000000000E+00   0.2553706786E-01  -0.3569419569E-03   0.0000000000E+00  -0.1881019201E-02
   0.2143253355E+00   0.1552229815E+00   0.6748448454E-04  -0.6944456758E-05   0.0000000000E+00   0.0000000000E+00   0.2542752009E-01  -0.9324008005E-03   0.0000000000E+00  -0.2086323253E-02
   0.2237025771E+00   0.1467467897E+00   0.7083708638E-04  -0.5687301115E-05   0.0000000000E+00   0.0000000000E+00   0.2436851503E-01  -0.5971492245E-03   0.0000000000E+00  -0.2362845428E-02
   0.2316239333E+00   0.1549145143E+00   0.7189829772E-04  -0.5914651990E-05   0.0000000000E+00   0.0000000000E+00   0.2484912082E-01  -0.3455620700E-03   0.0000000000E+00  -0.2101691250E-02
   0.2222467532E+00   0.1633907621E+00   0.6859219861E-04  -0.7130906879E-05   0.0000000000E+00   0.0000000000E+00   0.2584144083E-01  -0.6681026491E-03   0.0000000000E+00  -0.1858005969E-02
   0.2278497088E+00   0.1845701065E-01   0.8425277236E-04  -0.8164842681E-07   0.0000000000E+00   0.0000000000E+00   0.1179093510E-01   0.2960326049E-02   0.0000000000E+00  -0.1237196759E-02
   0.2307019736E+00   0.3704792086E-01   0.8369064660E-04  -0.2439445755E-06   0.0000000000E+00   0.0000000000E+00   0.1298988388E-01   0.2633657565E-02   0.0000000000E+00  -0.2220888825E-02
   0.2292759008E+00   0.2775248043E-01   0.8403182291E-04  -0.1480710484E-06   0.0000000000E+00   0.0000000000E+00   0.1230871441E-01   0.2776291193E-02   0.0000000000E+00  -0.1731656659E-02
   0.2206636704E+00   0.3734040358E-01   0.8246639227E-04  -0.2970213134E-06   0.0000000000E+00   0.0000000000E+00   0.1248542823E-01   0.2262155774E-02   0.0000000000E+00  -0.2516580378E-02
   0.2175820280E+00   0.1859745430E-01   0.8315901413E-04  -0.1037976793E-06   0.0000000000E+00   0.0000000000E+00   0.1107862491E-01   0.2608551759E-02   0.0000000000E+00  -0.1412217694E-02
   0.1834139394E+00   0.0000000000E+00   0.8060242296E-04   0.0000000000E+00   0.0000000000E+00   0.0000000000E+00   0.7462528658E-02   0.1124976974E-02   0.0000000000E+00  -0.4450817152E-04
   0.2042489384E+00   0.0000000000E+00   0.8227239634E-04   0.0000000000E+00   0.0000000000E+00   0.0000000000E+00   0.9580093798E-02   0.2272261708E-02   0.0000000000E+00  -0.2787550044E-04
   0.1851013211E+00   0.9506350513E-02   0.8057605756E-04  -0.1097671640E-06   0.0000000000E+00   0.0000000000E+00   0.7786163229E-02   0.1082261830E-02   0.0000000000E+00  -0.1047728545E-02
   0.1938313842E+00   0.0000000000E+00   0.8139021466E-04   0.0000000000E+00   0.0000000000E+00   0.0000000000E+00   0.8549214597E-02   0.1749945008E-02   0.0000000000E+00  -0.2909566063E-04
   0.2057817747E+00   0.9368950603E-02   0.8230067426E-04  -0.6136701851E-07   0.0000000000E+00   0.0000000000E+00   0.9826024243E-02   0.2212569956E-02   0.0000000000E+00  -0.8158021281E-03
   0.1417451847E+00   0.0000000000E+00   0.7851869386E-04   0.0000000000E+00   0.0000000000E+00   0.0000000000E+00   0.1505488016E-02  -0.4208475546E-02   0.0000000000E+00  -0.1604572435E-03
   0.1457471345E+00   0.2098065498E-01   0.7745046577E-04  -0.9064187506E-06   0.0000000000E+00   0.0000000000E+00   0.3745850830E-02  -0.3323310133E-02   0.0000000000E+00  -0.3304686334E-02
   0.1437464345E+00   0.1049031188E-01   0.7825950348E-04  -0.4688232932E-06   0.0000000000E+00   0.0000000000E+00   0.2118890241E-02  -0.3952203299E-02   0.0000000000E+00  -0.1604776600E-02
   0.1337768598E+00   0.2354537609E-01   0.7657882873E-04  -0.1558010065E-05   0.0000000000E+00   0.0000000000E+00   0.2496687407E-02  -0.5882293757E-02   0.0000000000E+00  -0.3338147315E-02
   0.1313282295E+00   0.0000000000E+00   0.7823547557E-04   0.0000000000E+00   0.0000000000E+00   0.0000000000E+00   0.3377656753E-03  -0.7185858068E-02   0.0000000000E+00   0.8368371413E-06
   0.3500999940E+00   0.2499892513E+00   0.1000000000E-03  -0.1074868917E-04   0.0000000000E+00   0.0000000000E+00   0.2994490234E-01  -0.2244121949E-04   0.0000000000E+00   0.4192531818E-06
   0.3306497260E+00   0.2499891729E+00   0.9416801397E-04  -0.1082708352E-04   0.0000000000E+00   0.0000000000E+00   0.3003058247E-01  -0.2162472506E-04   0.0000000000E+00  -0.5397467079E-05
   0.3308829748E+00   0.2310376188E+00   0.9442181827E-04  -0.9147150247E-05   0.0000000000E+00   0.0000000000E+00   0.2908192422E-01   0.5098404740E-04   0.0000000000E+00  -0.1452911729E-03
   0.3500999940E+00   0.2307601811E+00   0.1000000000E-03  -0.9050914433E-05   0.0000000000E+00   0.0000000000E+00   0.2900572364E-01   0.5476278164E-04   0.0000000000E+00  -0.1820802673E-05
   0.3403748770E+00   0.2499892316E+00   0.9708600961E-04  -0.1076836685E-04   0.0000000000E+00   0.0000000000E+00   0.2998775167E-01  -0.1775887137E-04   0.0000000000E+00  -0.1905641772E-05
   0.3307663428E+00   0.2405134043E+00   0.9428781518E-04  -0.9978673854E-05   0.0000000000E+00   0.0000000000E+00   0.2959815314E-01   0.2490890292E-04   0.0000000000E+00  -0.7596813570E-04
   0.3404914711E+00   0.2308989252E+00   0.9721311344E-04  -0.9080812461E-05   0.0000000000E+00   0.0000000000E+00   0.2904535349E-01   0.5831958753E-04   0.0000000000E+00  -0.7174907752E-04
   0.3500999940E+00   0.2403747178E+00   0.1000000000E-03  -0.9891213843E-05   0.0000000000E+00   0.0000000000E+00   0.2951917412E-01   0.2672512094E-04   0.0000000000E+00  -0.5662636919E-06
   0.2730969767E+00   0.2316551168E+00   0.7739467321E-04  -0.1040524176E-04   0.0000000000E+00   0.0000000000E+00   0.2995486806E-01   0.1761957801E-04   0.0000000000E+00  -0.4565469995E-03
   0.2923456820E+00   0.2314798867E+00   0.8312803438E-04  -0.9801329486E-05   0.0000000000E+00   0.0000000000E+00   0.2957447419E-01   0.3293261291E-04   0.0000000000E+00  -0.3843692238E-03
   0.2917490318E+00   0.2499885117E+00   0.8237478106E-04  -0.1148828630E-04   0.0000000000E+00   0.0000000000E+00   0.3068533015E-01  -0.1458156333E-04   0.0000000000E+00  -0.1467290938E-04
   0.2722985785E+00   0.2499878841E+00   0.7635746852E-04  -0.1211589858E-04   0.0000000000E+00   0.0000000000E+00   0.3120236654E-01  -0.8484821534E-05   0.0000000000E+00  -0.1757585773E-04
   0.2827213237E+00   0.2315675285E+00   0.8027068635E-04  -0.1007648711E-04   0.0000000000E+00   0.0000000000E+00   0.2976564991E-01   0.2935221646E-04   0.0000000000E+00  -0.4160555063E-03
   0.2920473243E+00   0.2407342081E+00   0.8273330264E-04  -0.1063589924E-04   0.0000000000E+00   0.0000000000E+00   0.3015635611E-01   0.1592609305E-04   0.0000000000E+00  -0.2012921033E-03
   0.2820238323E+00   0.2499882258E+00   0.7937825915E-04  -0.1177416789E-04   0.0000000000E+00   0.0000000000E+00   0.3094350569E-01  -0.8531345667E-05   0.0000000000E+00  -0.8793668348E-05
   0.2726977714E+00   0.2408215098E+00   0.7685535467E-04  -0.1125119327E-04   0.0000000000E+00   0.0000000000E+00   0.3059218887E-01   0.8360460331E-05   0.0000000000E+00  -0.2392675575E-03
   0.3500999940E+00   0.1730723179E+00   0.1000000000E-03  -0.4610076525E-05   0.0000000000E+00   0.0000000000E+00   0.2501562604E-01   0.9240253128E-03   0.0000000000E+00  -0.1285044653E-05
   0.3308733591E+00   0.1733096359E+00   0.9523705023E-04  -0.4682124139E-05   0.0000000000E+00   0.0000000000E+00   0.2506531257E-01   0.8895355307E-03   0.0000000000E+00  -0.4005207659E-03
   0.3308652463E+00   0.1538438734E+00   0.9555825324E-04  -0.3478583374E-05   0.0000000000E+00   0.0000000000E+00   0.2351096692E-01   0.1318352527E-02   0.0000000000E+00  -0.4587317458E-03
   0.3500999940E+00   0.1538427297E+00   0.1000000000E-03  -0.3430317522E-05   0.0000000000E+00   0.0000000000E+00   0.2348608415E-01   0.1357390568E-02   0.0000000000E+00  -0.1114835829E-05
   0.3404866935E+00   0.1731909981E+00   0.9762047462E-04  -0.4631851347E-05   0.0000000000E+00   0.0000000000E+00   0.2504394506E-01   0.9175107210E-03   0.0000000000E+00  -0.2000539314E-03
   0.3308692860E+00   0.1635767764E+00   0.9539603593E-04  -0.4058593112E-05   0.0000000000E+00   0.0000000000E+00   0.2429765418E-01   0.1106618768E-02   0.0000000000E+00  -0.4286868238E-03
   0.3404826210E+00   0.1538433137E+00   0.9778003155E-04  -0.3442288572E-05   0.0000000000E+00   0.0000000000E+00   0.2350276173E-01   0.1350669458E-02   0.0000000000E+00  -0.2289951653E-03
   0.3500999940E+00   0.1634575372E+00   0.1000000000E-03  -0.3998780504E-05   0.0000000000E+00   0.0000000000E+00   0.2425943338E-01   0.1143122763E-02   0.0000000000E+00  -0.1059118971E-05
   0.3500999940E+00   0.1346129634E+00   0.1000000000E-03  -0.2427624635E-05   0.0000000000E+00   0.0000000000E+00   0.2193325619E-01   0.1841342187E-02   0.0000000000E+00  -0.8435034274E-06
   0.3308944168E+00   0.1440582522E+00   0.9573084608E-04  -0.2940799397E-05   0.0000000000E+00   0.0000000000E+00   0.2271887634E-01   0.1562081879E-02   0.0000000000E+00  -0.4794879623E-03
   0.3405117901E+00   0.1344427909E+00   0.9795111672E-04  -0.2429138032E-05   0.0000000000E+00   0.0000000000E+00   0.2193203913E-01   0.1836932185E-02   0.0000000000E+00  -0.2499050906E-03
   0.3500999940E+00   0.1442278768E+00   0.1000000000E-03  -0.2906193471E-05   0.0000000000E+00   0.0000000000E+00   0.2271138013E-01   0.1599433603E-02   0.0000000000E+00  -0.7654500761E-06
   0.3500999940E+00   0.1153830059E+00   0.1000000000E-03  -0.1610091542E-05   0.0000000000E+00   0.0000000000E+00   0.2040503121E-01   0.2358731599E-02   0.0000000000E+00  -0.4751480862E-06
   0.3405825090E+00   0.1150454855E+00   0.9812800739E-04  -0.1604497738E-05   0.0000000000E+00   0.0000000000E+00   0.2038474594E-01   0.2357686132E-02   0.0000000000E+00  -0.2591321787E-03
   0.3500999940E+00   0.1249980045E+00   0.1000000000E-03  -0.1995488906E-05   0.0000000000E+00   0.0000000000E+00   0.2116279164E-01   0.2097713778E-02   0.0000000000E+00  -0.5937488409E-06
   0.3500999940E+00   0.9615286903E-01   0.1000000000E-03  -0.9788651157E-06   0.0000000000E+00   0.0000000000E+00   0.1895557672E-01   0.2885396506E-02   0.0000000000E+00  -0.3105428722E-06
   0.3310720117E+00   0.1049815084E+00   0.9641973966E-04  -0.1269632722E-05   0.0000000000E+00   0.0000000000E+00   0.1960200463E-01   0.2591513050E-02   0.0000000000E+00  -0.5163279778E-03
   0.3405894592E+00   0.9570395681E-01   0.9828323462E-04  -0.9711900109E-06   0.0000000000E+00   0.0000000000E+00   0.1892092380E-01   0.2886104140E-02   0.0000000000E+00  -0.2559294047E-03
   0.3500999940E+00   0.1057679605E+00   0.1000000000E-03  -0.1271484825E-05   0.0000000000E+00   0.0000000000E+00   0.1966476645E-01   0.2617041590E-02   0.0000000000E+00  -0.3925521169E-06
   0.3500999940E+00   0.7692255339E-01   0.1000000000E-03  -0.5264135637E-06   0.0000000000E+00   0.0000000000E+00   0.1764578888E-01   0.3389885886E-02   0.0000000000E+00  -0.2895599757E-06
   0.3405172264E+00   0.7643934461E-01   0.9841043797E-04  -0.5202868743E-06   0.0000000000E+00   0.0000000000E+00   0.1760325702E-01   0.3389661229E-02   0.0000000000E+00  -0.2377690920E-03
   0.3500999940E+00   0.8653773259E-01   0.1000000000E-03  -0.7312050965E-06   0.0000000000E+00   0.0000000000E+00   0.1827512664E-01   0.3129792715E-02   0.0000000000E+00  -0.3137588929E-06
   0.3500999940E+00   0.5769207286E-01   0.1000000000E-03  -0.2351354678E-06   0.0000000000E+00   0.0000000000E+00   0.1653940262E-01   0.3836177073E-02   0.0000000000E+00  -0.3568371123E-06
   0.3403777586E+00   0.5722728311E-01   0.9850760919E-04  -0.2315866265E-06   0.0000000000E+00   0.0000000000E+00   0.1649332323E-01   0.3832949981E-02   0.0000000000E+00  -0.2022624098E-03
   0.3304792629E+00   0.4722273928E-01   0.9709491562E-04  -0.1395199847E-06   0.0000000000E+00   0.0000000000E+00   0.1597801841E-01   0.3977362531E-02   0.0000000000E+00  -0.3506428437E-03
   0.3500999940E+00   0.4807678230E-01   0.1000000000E-03  -0.1415977144E-06   0.0000000000E+00   0.0000000000E+00   0.1607383074E-01   0.3999164725E-02   0.0000000000E+00  -0.3339224229E-06
   0.0000000000E+00   0.2499561232E+00   0.0000000000E+00  -0.4387679175E-04   0.0000000000E+00   0.0000000000E+00   0.1723943339E-01  -0.1084897439E-03   0.0000000000E+00   0.3500117825E-05
   0.9723915528E-02   0.2499562655E+00   0.1692958133E-05  -0.4373453993E-04   0.0000000000E+00   0.0000000000E+00   0.1752945152E-01  -0.8116371396E-04   0.0000000000E+00   0.1304578312E-04
   0.0000000000E+00   0.2416232583E+00   0.0000000000E+00  -0.4341667409E-04   0.0000000000E+00   0.0000000000E+00   0.1962832660E-01   0.1304184111E-03   0.0000000000E+00   0.9958701796E-05
   0.3759641994E-01   0.2161790841E+00   0.9380743140E-05  -0.3959585638E-04   0.0000000000E+00   0.0000000000E+00   0.2581586821E-01   0.8317299528E-03   0.0000000000E+00   0.2340106259E-02
   0.3620314653E-01   0.2000660389E+00   0.9839030144E-05  -0.3866014597E-04   0.0000000000E+00   0.0000000000E+00   0.2816227226E-01   0.1707154686E-02   0.0000000000E+00   0.2782546901E-02
   0.5559830793E-01   0.1985732341E+00   0.1538593338E-04  -0.3578985916E-04   0.0000000000E+00   0.0000000000E+00   0.2892641675E-01   0.8427852741E-03   0.0000000000E+00   0.3636114287E-02
   0.5752142554E-01   0.2148886084E+00   0.1468544049E-04  -0.3674058595E-04   0.0000000000E+00   0.0000000000E+00   0.2694699816E-01   0.4040746998E-03   0.0000000000E+00   0.3085566297E-02
   0.3689980261E-01   0.2081225577E+00   0.9631112602E-05  -0.3912429278E-04   0.0000000000E+00   0.0000000000E+00   0.2701750154E-01   0.1281108701E-02   0.0000000000E+00   0.2549287397E-02
   0.4590069937E-01   0.1993195169E+00   0.1258466619E-04  -0.3733713839E-04   0.0000000000E+00   0.0000000000E+00   0.2856077357E-01   0.1333089539E-02   0.0000000000E+00   0.3201852883E-02
   0.5655989375E-01   0.2067309206E+00   0.1506085440E-04  -0.3626637722E-04   0.0000000000E+00   0.0000000000E+00   0.2790378461E-01   0.6276616458E-03   0.0000000000E+00   0.3342582658E-02
   0.4755888865E-01   0.2155337356E+00   0.1199905423E-04  -0.3827838807E-04   0.0000000000E+00   0.0000000000E+00   0.2638140715E-01   0.6528491255E-03   0.0000000000E+00   0.2697653440E-02
   0.1781246743E-01   0.2003750199E+00   0.4799329905E-05  -0.4035314421E-04   0.0000000000E+00   0.0000000000E+00   0.2774552935E-01   0.2302265829E-02   0.0000000000E+00   0.1506107270E-02
   0.1817467433E-01   0.2085541621E+00   0.4693830347E-05  -0.4083093787E-04   0.0000000000E+00   0.0000000000E+00   0.2646351043E-01   0.1728953474E-02   0.0000000000E+00   0.1374857888E-02
   0.2700779169E-01   0.2002204064E+00   0.7304786491E-05  -0.3963662640E-04   0.0000000000E+00   0.0000000000E+00   0.2797014536E-01   0.2071149454E-02   0.0000000000E+00   0.2137766561E-02
   0.2806661892E-01   0.2164560546E+00   0.6951920194E-05  -0.4059140111E-04   0.0000000000E+00   0.0000000000E+00   0.2546196451E-01   0.1023555628E-02   0.0000000000E+00   0.1790288884E-02
   0.5821138999E-01   0.2322801544E+00   0.1326208931E-04  -0.3793364240E-04   0.0000000000E+00   0.0000000000E+00   0.2465465429E-01   0.9387987450E-04   0.0000000000E+00   0.1994135251E-02
   0.5786645909E-01   0.2235843813E+00   0.1402698978E-04  -0.3734473867E-04   0.0000000000E+00   0.0000000000E+00   0.2582190427E-01   0.2564482599E-03   0.0000000000E+00   0.2529407392E-02
   0.4834881858E-01   0.2325917910E+00   0.1084488324E-04  -0.3938601557E-04   0.0000000000E+00   0.0000000000E+00   0.2385641778E-01   0.1608063530E-03   0.0000000000E+00   0.1723884654E-02
   0.3804141592E-01   0.2245413614E+00   0.8988522309E-05  -0.4011856746E-04   0.0000000000E+00   0.0000000000E+00   0.2450400287E-01   0.5340644538E-03   0.0000000000E+00   0.1923259320E-02
   0.1555939929E+00   0.2499774930E+00   0.3843194725E-04  -0.2250703568E-04   0.0000000000E+00   0.0000000000E+00   0.3255194731E-01   0.5782022158E-04   0.0000000000E+00   0.3279993281E-04
   0.1361433210E+00   0.2499744044E+00   0.3221104193E-04  -0.2559559332E-04   0.0000000000E+00   0.0000000000E+00   0.3145720727E-01   0.6177692134E-04   0.0000000000E+00   0.5720271108E-04
   0.1458686380E+00   0.2499759936E+00   0.3529495860E-04  -0.2400641664E-04   0.0000000000E+00   0.0000000000E+00   0.3200709403E-01   0.4417933183E-04   0.0000000000E+00   0.2244797856E-04
   0.1365789827E+00   0.2412903568E+00   0.3374166398E-04  -0.2471022275E-04   0.0000000000E+00   0.0000000000E+00   0.3086258133E-01  -0.7044452810E-04   0.0000000000E+00   0.5626661875E-03
   0.1560439556E+00   0.2412811573E+00   0.3983962552E-04  -0.2160070814E-04   0.0000000000E+00   0.0000000000E+00   0.3174668454E-01  -0.6639005020E-04   0.0000000000E+00   0.3208554386E-03
   0.1750448069E+00   0.2499801958E+00   0.4480994254E-04  -0.1980420957E-04   0.0000000000E+00   0.0000000000E+00   0.3307309669E-01   0.4769181291E-04   0.0000000000E+00   0.1291273419E-04
   0.1759714378E+00   0.2324781266E+00   0.4730084122E-04  -0.1798639019E-04   0.0000000000E+00   0.0000000000E+00   0.3144944724E-01  -0.1229332164E-03   0.0000000000E+00   0.2051245825E-03
   0.1653193869E+00   0.2499788961E+00   0.4160787951E-04  -0.2110385126E-04   0.0000000000E+00   0.0000000000E+00   0.3281355754E-01   0.3972233137E-04   0.0000000000E+00   0.1174807967E-04
   0.1662326391E+00   0.2325315092E+00   0.4423505753E-04  -0.1929080361E-04   0.0000000000E+00   0.0000000000E+00   0.3129983651E-01  -0.1514154882E-03   0.0000000000E+00   0.3859520395E-03
   0.1755081363E+00   0.2412291678E+00   0.4606925861E-04  -0.1888816033E-04   0.0000000000E+00   0.0000000000E+00   0.3216938417E-01  -0.5582266519E-04   0.0000000000E+00   0.1109420157E-03
   0.2250842698E+00   0.0000000000E+00   0.8427579278E-04   0.0000000000E+00   0.0000000000E+00   0.0000000000E+00   0.1123772111E-01   0.3027154266E-02   0.0000000000E+00  -0.2022042932E-04
   0.2459198800E+00   0.0000000000E+00   0.8654296719E-04   0.0000000000E+00   0.0000000000E+00   0.0000000000E+00   0.1250268742E-01   0.3551504846E-02   0.0000000000E+00  -0.1363383980E-04
   0.2483329301E+00   0.1834237556E-01   0.8658814244E-04  -0.5233829700E-07   0.0000000000E+00   0.0000000000E+00   0.1291356100E-01   0.3481909150E-02   0.0000000000E+00  -0.9387061894E-03
   0.2264670709E+00   0.9228510008E-02   0.8433890748E-04  -0.3616235894E-07   0.0000000000E+00   0.0000000000E+00   0.1140600749E-01   0.2968433890E-02   0.0000000000E+00  -0.6223048284E-03
   0.2355020461E+00   0.0000000000E+00   0.8538005580E-04   0.0000000000E+00   0.0000000000E+00   0.0000000000E+00   0.1187405482E-01   0.3300444283E-02   0.0000000000E+00  -0.1199422046E-04
   0.2471264616E+00   0.9171191797E-02   0.8662155751E-04  -0.2215342821E-07   0.0000000000E+00   0.0000000000E+00   0.1262326591E-01   0.3495929864E-02   0.0000000000E+00  -0.4721769178E-03
   0.2380913015E+00   0.1839969500E-01   0.8539551995E-04  -0.6510293801E-07   0.0000000000E+00   0.0000000000E+00   0.1235660154E-01   0.3232639894E-02   0.0000000000E+00  -0.1076623808E-02
   0.1966059805E+00   0.1995021042E+00   0.5741452004E-04  -0.1247876935E-04   0.0000000000E+00   0.0000000000E+00   0.2909726161E-01  -0.7340428398E-03   0.0000000000E+00  -0.5187459552E-03
   0.2156221816E+00   0.1983815824E+00   0.6305659802E-04  -0.1067462665E-04   0.0000000000E+00   0.0000000000E+00   0.2862456605E-01  -0.4684247354E-03   0.0000000000E+00  -0.8941168210E-03
   0.2156034318E+00   0.2151258437E+00   0.6138382838E-04  -0.1220429665E-04   0.0000000000E+00   0.0000000000E+00   0.2983681283E-01  -0.2424966979E-03   0.0000000000E+00  -0.5845127310E-03
   0.1962782286E+00   0.2156072884E+00   0.5552064088E-04  -0.1403357128E-04   0.0000000000E+00   0.0000000000E+00   0.3015679348E-01  -0.3799515211E-03   0.0000000000E+00  -0.2585534217E-03
   0.2061141032E+00   0.1989418936E+00   0.6025016593E-04  -0.1152643768E-04   0.0000000000E+00   0.0000000000E+00   0.2885861522E-01  -0.6056858047E-03   0.0000000000E+00  -0.7181613026E-03
   0.2156127962E+00   0.2067537085E+00   0.6220915937E-04  -0.1143650689E-04   0.0000000000E+00   0.0000000000E+00   0.2922104459E-01  -0.3595193511E-03   0.0000000000E+00  -0.7319205606E-03
   0.2059408315E+00   0.2153666172E+00   0.5846151686E-04  -0.1306783950E-04   0.0000000000E+00   0.0000000000E+00   0.2999549536E-01  -0.3138761687E-03   0.0000000000E+00  -0.4300785777E-03
   0.1964420973E+00   0.2075547033E+00   0.5646034748E-04  -0.1325666494E-04   0.0000000000E+00   0.0000000000E+00   0.2961032461E-01  -0.5641024150E-03   0.0000000000E+00  -0.3807198738E-03
   0.1175472282E+00   0.2324097363E+00   0.2935423859E-04  -0.2726368870E-04   0.0000000000E+00   0.0000000000E+00   0.2943628135E-01  -0.1491320579E-03   0.0000000000E+00   0.1520902039E-02
   0.1189127354E+00   0.2152222876E+00   0.3210536476E-04  -0.2541844959E-04   0.0000000000E+00   0.0000000000E+00   0.2962768830E-01  -0.6517842302E-03   0.0000000000E+00   0.2264804313E-02
   0.1272808502E+00   0.2325080624E+00   0.3223518232E-04  -0.2551156557E-04   0.0000000000E+00   0.0000000000E+00   0.2996107260E-01  -0.1784817034E-03   0.0000000000E+00   0.1253073045E-02
   0.1182300184E+00   0.2238159996E+00   0.3076644504E-04  -0.2635335608E-04   0.0000000000E+00   0.0000000000E+00   0.2948720509E-01  -0.4152446566E-03   0.0000000000E+00   0.1897629864E-02
   0.1285828412E+00   0.2155065668E+00   0.3496423550E-04  -0.2367916897E-04   0.0000000000E+00   0.0000000000E+00   0.2985647103E-01  -0.7040902188E-03   0.0000000000E+00   0.1866263610E-02
   0.2139465416E+00   0.2499843561E+00   0.5765764740E-04  -0.1564394414E-04   0.0000000000E+00   0.0000000000E+00   0.3285100191E-01   0.2158126838E-04   0.0000000000E+00  -0.1124063974E-04
   0.1944956924E+00   0.2499824812E+00   0.5124439150E-04  -0.1751883195E-04   0.0000000000E+00   0.0000000000E+00   0.3312956631E-01   0.3477885535E-04   0.0000000000E+00  -0.1650290008E-05
   0.1954885881E+00   0.2324033518E+00   0.5345105526E-04  -0.1570719546E-04   0.0000000000E+00   0.0000000000E+00   0.3143930070E-01  -0.9012510784E-04   0.0000000000E+00  -0.1032366509E-03
   0.2149717152E+00   0.2322698739E+00   0.5956922842E-04  -0.1385214959E-04   0.0000000000E+00   0.0000000000E+00   0.3120287220E-01  -0.5704383783E-04   0.0000000000E+00  -0.3149703198E-03
   0.2042211230E+00   0.2499834686E+00   0.5445703347E-04  -0.1653140861E-04   0.0000000000E+00   0.0000000000E+00   0.3298953336E-01   0.2239316520E-04   0.0000000000E+00  -0.2858528905E-05
   0.1949921391E+00   0.2411929327E+00   0.5234709526E-04  -0.1660430491E-04   0.0000000000E+00   0.0000000000E+00   0.3221524893E-01  -0.4153528528E-04   0.0000000000E+00  -0.5272425610E-04
   0.2052301570E+00   0.2323366645E+00   0.5651601812E-04  -0.1472854157E-04   0.0000000000E+00   0.0000000000E+00   0.3131891270E-01  -0.7952072214E-04   0.0000000000E+00  -0.2122272591E-03
   0.2144591174E+00   0.2411271175E+00   0.5860239023E-04  -0.1473848835E-04   0.0000000000E+00   0.0000000000E+00   0.3198157383E-01  -0.2680092783E-04   0.0000000000E+00  -0.1647826950E-03
   0.2343998081E+00   0.2319412059E+00   0.6562208428E-04  -0.1237006004E-04   0.0000000000E+00   0.0000000000E+00   0.3081506548E-01  -0.2801510924E-04   0.0000000000E+00  -0.4389754444E-03
   0.2537685649E+00   0.2318128537E+00   0.7155689470E-04  -0.1124626943E-04   0.0000000000E+00   0.0000000000E+00   0.3038501706E-01  -0.2640477537E-05   0.0000000000E+00  -0.4798211888E-03
   0.2528480186E+00   0.2499870122E+00   0.7023360568E-04  -0.1298784909E-04   0.0000000000E+00   0.0000000000E+00   0.3178559031E-01  -0.3416996129E-06   0.0000000000E+00  -0.1847061583E-04
   0.2333973311E+00   0.2499858518E+00   0.6399714081E-04  -0.1414820403E-04   0.0000000000E+00   0.0000000000E+00   0.3236518806E-01   0.9671150195E-05   0.0000000000E+00  -0.1666128290E-04
   0.2440842040E+00   0.2318770615E+00   0.6860001364E-04  -0.1176954758E-04   0.0000000000E+00   0.0000000000E+00   0.3059990872E-01  -0.1426101531E-04   0.0000000000E+00  -0.4558445597E-03
   0.2533082703E+00   0.2408999427E+00   0.7087434894E-04  -0.1210727626E-04   0.0000000000E+00   0.0000000000E+00   0.3108222242E-01  -0.1456460417E-05   0.0000000000E+00  -0.2515944128E-03
   0.2431226808E+00   0.2499864710E+00   0.6712879815E-04  -0.1352903665E-04   0.0000000000E+00   0.0000000000E+00   0.3207461434E-01   0.4649150028E-05   0.0000000000E+00  -0.9137403472E-05
   0.2338985517E+00   0.2409635319E+00   0.6479167198E-04  -0.1324914915E-04   0.0000000000E+00   0.0000000000E+00   0.3156727201E-01  -0.1348460423E-04   0.0000000000E+00  -0.2302351224E-03
   0.2634327813E+00   0.2317340176E+00   0.7448633241E-04  -0.1079340586E-04   0.0000000000E+00   0.0000000000E+00   0.3017039866E-01   0.1056246753E-04   0.0000000000E+00  -0.4636626216E-03
   0.2625732972E+00   0.2499874812E+00   0.7330915048E-04  -0.1251876480E-04   0.0000000000E+00   0.0000000000E+00   0.3149339557E-01  -0.2706931840E-05   0.0000000000E+00  -0.9596728329E-05
   0.3111994251E+00   0.2499889321E+00   0.8830311412E-04  -0.1106792143E-04   0.0000000000E+00   0.0000000000E+00   0.3028403095E-01  -0.1886902799E-04   0.0000000000E+00  -0.1042499850E-04
   0.3115913094E+00   0.2312628305E+00   0.8879337197E-04  -0.9390548949E-05   0.0000000000E+00   0.0000000000E+00   0.2927530963E-01   0.4392285741E-04   0.0000000000E+00  -0.2769650443E-03
   0.3209245665E+00   0.2499890735E+00   0.9124150480E-04  -0.1092653375E-04   0.0000000000E+00   0.0000000000E+00   0.3015731837E-01  -0.1604267727E-04   0.0000000000E+00  -0.4648861144E-05
   0.3113953688E+00   0.2406258893E+00   0.8853482225E-04  -0.1022065569E-04   0.0000000000E+00   0.0000000000E+00   0.2981530975E-01   0.2138279020E-04   0.0000000000E+00  -0.1449628479E-03
   0.3212371475E+00   0.2311502440E+00   0.9161253749E-04  -0.9249008130E-05   0.0000000000E+00   0.0000000000E+00   0.2918000425E-01   0.5271044427E-04   0.0000000000E+00  -0.2086854941E-03
   0.5560109729E-01   0.8312028396E-01   0.4407358938E-04  -0.2667554343E-04   0.0000000000E+00   0.0000000000E+00   0.2967144259E-01   0.1336316087E-01   0.0000000000E+00  -0.1909550998E-01
   0.7197170583E-01   0.9411916037E-01   0.4178163181E-04  -0.2195782523E-04   0.0000000000E+00   0.0000000000E+00   0.3182736317E-01   0.1681681563E-02   0.0000000000E+00  -0.7490862322E-02
   0.6202058493E-01   0.1069624481E+00   0.3247703368E-04  -0.2595988479E-04   0.0000000000E+00   0.0000000000E+00   0.3737885445E-01   0.1931532854E-02   0.0000000000E+00  -0.4693472341E-02
   0.3829886925E-01   0.9235737403E-01   0.3052664905E-04  -0.3057786628E-04   0.0000000000E+00   0.0000000000E+00   0.5133012837E-01   0.8833265704E-02   0.0000000000E+00  -0.1949850352E-01
   0.6378586181E-01   0.8861986560E-01   0.4238971493E-04  -0.2417700036E-04   0.0000000000E+00   0.0000000000E+00   0.2888256487E-01   0.5048923918E-02   0.0000000000E+00  -0.1166597427E-01
   0.6699606547E-01   0.1005407938E+00   0.3704947138E-04  -0.2396923567E-04   0.0000000000E+00   0.0000000000E+00   0.3453360778E-01   0.1705300397E-02   0.0000000000E+00  -0.6206006072E-02
   0.5015958438E-01   0.9965965338E-01   0.3135918054E-04  -0.2852642214E-04   0.0000000000E+00   0.0000000000E+00   0.4242882969E-01   0.4993810407E-02   0.0000000000E+00  -0.1111885006E-01
   0.4717713423E-01   0.8816342568E-01   0.3745982848E-04  -0.2870191523E-04   0.0000000000E+00   0.0000000000E+00   0.4126340077E-01   0.1220698622E-01   0.0000000000E+00  -0.2012434240E-01
   0.0000000000E+00   0.1999591172E+00   0.0000000000E+00  -0.4088581351E-04   0.0000000000E+00   0.0000000000E+00   0.2767668365E-01   0.2556094623E-02   0.0000000000E+00   0.1585923715E-04
   0.8906231895E-02   0.2001669230E+00   0.2397854882E-05  -0.4075700222E-04   0.0000000000E+00   0.0000000000E+00   0.2772924117E-01   0.2500449054E-02   0.0000000000E+00   0.7493424227E-03
   0.0000000000E+00   0.2082919682E+00   0.0000000000E+00  -0.4137477776E-04   0.0000000000E+00   0.0000000000E+00   0.2633873836E-01   0.1917197150E-02   0.0000000000E+00   0.1498797460E-04
   0.0000000000E+00   0.1832933489E+00   0.0000000000E+00  -0.3998808548E-04   0.0000000000E+00   0.0000000000E+00   0.3040077420E-01   0.4101034845E-02   0.0000000000E+00   0.1552640248E-04
   0.8548222555E-02   0.1836895738E+00   0.2491364768E-05  -0.3986624514E-04   0.0000000000E+00   0.0000000000E+00   0.3038935758E-01   0.3989872711E-02   0.0000000000E+00   0.8082010473E-03
   0.1745445691E-01   0.1922305600E+00   0.4891711087E-05  -0.3989803631E-04   0.0000000000E+00   0.0000000000E+00   0.2902309039E-01   0.2993829947E-02   0.0000000000E+00   0.1553224363E-02
   0.0000000000E+00   0.1916262409E+00   0.0000000000E+00  -0.4042212842E-04   0.0000000000E+00   0.0000000000E+00   0.2902476406E-01   0.3319540209E-02   0.0000000000E+00   0.1557541853E-04
   0.3652510230E-01   0.1168344740E+00   0.1846439991E-04  -0.3294200214E-04   0.0000000000E+00   0.0000000000E+00   0.4658729619E-01   0.5008413613E-02   0.0000000000E+00  -0.2296231778E-02
   0.2905174824E-01   0.9566203118E-01   0.2328043612E-04  -0.3200411501E-04   0.0000000000E+00   0.0000000000E+00   0.6413992410E-01   0.6153347700E-02   0.0000000000E+00  -0.1797191537E-01
   0.3741072412E-01   0.1045959828E+00   0.2323382236E-04  -0.3170120231E-04   0.0000000000E+00   0.0000000000E+00   0.4967920543E-01   0.6598871605E-02   0.0000000000E+00  -0.1019370158E-01
   0.2784488306E-01   0.1165448574E+00   0.1449466050E-04  -0.3444462550E-04   0.0000000000E+00   0.0000000000E+00   0.4988572161E-01   0.6334914958E-02   0.0000000000E+00  -0.2581290273E-02
   0.0000000000E+00   0.1749604274E+00   0.0000000000E+00  -0.3958456414E-04   0.0000000000E+00   0.0000000000E+00   0.3187894176E-01   0.4890073493E-02   0.0000000000E+00   0.2256868456E-04
   0.2607389174E-01   0.1349527657E+00   0.1064504345E-04  -0.3601931466E-04   0.0000000000E+00   0.0000000000E+00   0.4202781070E-01   0.6738414436E-02   0.0000000000E+00   0.1025681081E-02
   0.3536327877E-01   0.1921537231E+00   0.9975769867E-05  -0.3823488591E-04   0.0000000000E+00   0.0000000000E+00   0.2931398643E-01   0.2226059889E-02   0.0000000000E+00   0.2855027423E-02
   0.2667556943E+00   0.0000000000E+00   0.8901331706E-04   0.0000000000E+00   0.0000000000E+00   0.0000000000E+00   0.1345659749E-01   0.3923276536E-02   0.0000000000E+00  -0.9170983742E-05
   0.2687150285E+00   0.1829147600E-01   0.8908345493E-04  -0.3460008908E-07   0.0000000000E+00   0.0000000000E+00   0.1376510131E-01   0.3853215944E-02   0.0000000000E+00  -0.6979202782E-03
   0.2677354029E+00   0.9145741515E-02   0.8908987389E-04  -0.1380467145E-07   0.0000000000E+00   0.0000000000E+00   0.1354044697E-01   0.3870205023E-02   0.0000000000E+00  -0.3509054568E-03
   0.2585239598E+00   0.1831692690E-01   0.8781675223E-04  -0.4240150900E-07   0.0000000000E+00   0.0000000000E+00   0.1334133597E-01   0.3674464480E-02   0.0000000000E+00  -0.8108195695E-03
   0.2563377799E+00   0.0000000000E+00   0.8775590622E-04   0.0000000000E+00   0.0000000000E+00   0.0000000000E+00   0.1298128299E-01   0.3743432319E-02   0.0000000000E+00  -0.8008848748E-05
   0.2366059264E+00   0.7431515106E-01   0.8152339817E-04  -0.1045036370E-05   0.0000000000E+00   0.0000000000E+00   0.1654850785E-01   0.1604492078E-02   0.0000000000E+00  -0.3148648445E-02
   0.2553011374E+00   0.7383706849E-01   0.8456839530E-04  -0.8227146016E-06   0.0000000000E+00   0.0000000000E+00   0.1674992517E-01   0.2252620313E-02   0.0000000000E+00  -0.2524288378E-02
   0.2459535334E+00   0.7407611608E-01   0.8304738451E-04  -0.9239213914E-06   0.0000000000E+00   0.0000000000E+00   0.1665840682E-01   0.1951075087E-02   0.0000000000E+00  -0.2821593828E-02
   0.2562950720E+00   0.8305498529E-01   0.8403004417E-04  -0.1092108806E-05   0.0000000000E+00   0.0000000000E+00   0.1759555962E-01   0.1990256240E-02   0.0000000000E+00  -0.2557813468E-02
   0.2380331378E+00   0.8349740304E-01   0.8087580381E-04  -0.1358055490E-05   0.0000000000E+00   0.0000000000E+00   0.1753141850E-01   0.1353310245E-02   0.0000000000E+00  -0.3144434275E-02
   0.3104297844E+00   0.3712687928E-01   0.9432737200E-04  -0.8282160945E-07   0.0000000000E+00   0.0000000000E+00   0.1537787273E-01   0.4064878534E-02   0.0000000000E+00  -0.5975096279E-03
   0.2905316604E+00   0.3677714065E-01   0.9154837334E-04  -0.9865327870E-07   0.0000000000E+00   0.0000000000E+00   0.1501453937E-01   0.3882026387E-02   0.0000000000E+00  -0.9187506154E-03
   0.3004807298E+00   0.3695201107E-01   0.9292981079E-04  -0.8963269513E-07   0.0000000000E+00   0.0000000000E+00   0.1519778114E-01   0.3978829110E-02   0.0000000000E+00  -0.7538802304E-03
   0.2898095069E+00   0.2752065337E-01   0.9165392828E-04  -0.5163103195E-07   0.0000000000E+00   0.0000000000E+00   0.1464715951E-01   0.3983013447E-02   0.0000000000E+00  -0.7077394369E-03
   0.3099559358E+00   0.2776656668E-01   0.9439482644E-04  -0.4101755298E-07   0.0000000000E+00   0.0000000000E+00   0.1504808182E-01   0.4161488163E-02   0.0000000000E+00  -0.4592674286E-03
   0.3500999940E+00   0.6730733349E-01   0.1000000000E-03  -0.3622115101E-06   0.0000000000E+00   0.0000000000E+00   0.1705699052E-01   0.3602481440E-02   0.0000000000E+00  -0.3328421658E-06
   0.3108343902E+00   0.4658993321E-01   0.9421720715E-04  -0.1490888357E-06   0.0000000000E+00   0.0000000000E+00   0.1577241220E-01   0.3874871231E-02   0.0000000000E+00  -0.7059132166E-03
   0.3203663929E+00   0.3740492060E-01   0.9573494358E-04  -0.7849814336E-07   0.0000000000E+00   0.0000000000E+00   0.1549157621E-01   0.4119036387E-02   0.0000000000E+00  -0.4453782155E-03
   0.3196710028E+00   0.1856038318E-01   0.9581180433E-04  -0.1522056647E-07   0.0000000000E+00   0.0000000000E+00   0.1495206567E-01   0.4338440290E-02   0.0000000000E+00  -0.2385006844E-03
   0.3188457836E+00   0.0000000000E+00   0.9575963043E-04   0.0000000000E+00   0.0000000000E+00   0.0000000000E+00   0.1476324721E-01   0.4409553487E-02   0.0000000000E+00  -0.2235426355E-05
   0.3500999940E+00   0.2115310223E+00   0.1000000000E-03  -0.7441662597E-05   0.0000000000E+00   0.0000000000E+00   0.2782613268E-01   0.2578929865E-03   0.0000000000E+00  -0.1344518363E-05
   0.3310031098E+00   0.2119733193E+00   0.9469181051E-04  -0.7544734750E-05   0.0000000000E+00   0.0000000000E+00   0.2790124390E-01   0.2432888404E-03   0.0000000000E+00  -0.2468879330E-03
   0.3309379804E+00   0.1926955929E+00   0.9494944003E-04  -0.6045137807E-05   0.0000000000E+00   0.0000000000E+00   0.2654397804E-01   0.5280840731E-03   0.0000000000E+00  -0.3299190731E-03
   0.3500999940E+00   0.1923017427E+00   0.1000000000E-03  -0.5953345895E-05   0.0000000000E+00   0.0000000000E+00   0.2647760789E-01   0.5537080645E-03   0.0000000000E+00  -0.1419758326E-05
   0.3405515695E+00   0.2117521808E+00   0.9734853499E-04  -0.7476227610E-05   0.0000000000E+00   0.0000000000E+00   0.2786542608E-01   0.2570042312E-03   0.0000000000E+00  -0.1232764267E-03
   0.3309705415E+00   0.2023344807E+00   0.9481648419E-04  -0.6778303725E-05   0.0000000000E+00   0.0000000000E+00   0.2724489609E-01   0.3928347594E-03   0.0000000000E+00  -0.2874836547E-03
   0.3405189752E+00   0.1924986906E+00   0.9747723800E-04  -0.5983415428E-05   0.0000000000E+00   0.0000000000E+00   0.2651323591E-01   0.5490311328E-03   0.0000000000E+00  -0.1649227766E-03
   0.3500999940E+00   0.2019163913E+00   0.1000000000E-03  -0.6680717113E-05   0.0000000000E+00   0.0000000000E+00   0.2717453740E-01   0.4131180882E-03   0.0000000000E+00  -0.1167837808E-05
   0.3500999940E+00   0.2211456220E+00   0.1000000000E-03  -0.8232978844E-05   0.0000000000E+00   0.0000000000E+00   0.2844781807E-01   0.1663253040E-03   0.0000000000E+00  -0.1541495334E-05
   0.3309430367E+00   0.2215054750E+00   0.9455174038E-04  -0.8332977997E-05   0.0000000000E+00   0.0000000000E+00   0.2852233215E-01   0.1567700493E-03   0.0000000000E+00  -0.1956340749E-03
   0.3500999940E+00   0.1826870567E+00   0.1000000000E-03  -0.5262290988E-05   0.0000000000E+00   0.0000000000E+00   0.2576185172E-01   0.7436507459E-03   0.0000000000E+00  -0.1094587528E-05
   0.3309056673E+00   0.1830026409E+00   0.9509030219E-04  -0.5344138319E-05   0.0000000000E+00   0.0000000000E+00   0.2582026193E-01   0.7135823509E-03   0.0000000000E+00  -0.3642454161E-03
   0.2926466814E+00   0.2126758703E+00   0.8392837374E-04  -0.8179671672E-05   0.0000000000E+00   0.0000000000E+00   0.2830540104E-01   0.1613917415E-03   0.0000000000E+00  -0.6619056013E-03
   0.2735824174E+00   0.2131345933E+00   0.7848839609E-04  -0.8770691205E-05   0.0000000000E+00   0.0000000000E+00   0.2862658948E-01   0.9074010872E-04   0.0000000000E+00  -0.7890710871E-03
   0.2734350481E+00   0.1942652795E+00   0.7953413473E-04  -0.7223542376E-05   0.0000000000E+00   0.0000000000E+00   0.2721517457E-01   0.2118381889E-03   0.0000000000E+00  -0.1081502161E-02
   0.2925036462E+00   0.1934401446E+00   0.8471924016E-04  -0.6640391464E-05   0.0000000000E+00   0.0000000000E+00   0.2689780202E-01   0.3615643944E-03   0.0000000000E+00  -0.8984793461E-03
   0.2831145582E+00   0.2129052574E+00   0.8121720689E-04  -0.8449642082E-05   0.0000000000E+00   0.0000000000E+00   0.2846757840E-01   0.1321128783E-03   0.0000000000E+00  -0.7243243988E-03
   0.2735087196E+00   0.2036999487E+00   0.7899761390E-04  -0.7984288712E-05   0.0000000000E+00   0.0000000000E+00   0.2793343662E-01   0.1552303617E-03   0.0000000000E+00  -0.9312538159E-03
   0.2829693568E+00   0.1938527296E+00   0.8213676012E-04  -0.6907371276E-05   0.0000000000E+00   0.0000000000E+00   0.2705795044E-01   0.2930076319E-03   0.0000000000E+00  -0.9915012014E-03
   0.2925751523E+00   0.2030580299E+00   0.8431233718E-04  -0.7395095571E-05   0.0000000000E+00   0.0000000000E+00   0.2761915502E-01   0.2673116200E-03   0.0000000000E+00  -0.7770636831E-03
   0.1944836778E+00   0.5816896973E-01   0.7706379940E-04  -0.1147668126E-05   0.0000000000E+00   0.0000000000E+00   0.1363343884E-01   0.1319083689E-03   0.0000000000E+00  -0.4495882276E-02
   0.2141738227E+00   0.5661280739E-01   0.7994371506E-04  -0.7757075877E-06   0.0000000000E+00   0.0000000000E+00   0.1411816274E-01   0.1296768520E-02   0.0000000000E+00  -0.3605776654E-02
   0.1925103481E+00   0.4827548002E-01   0.7809306751E-04  -0.8288836252E-06   0.0000000000E+00   0.0000000000E+00   0.1215893141E-01   0.4340961568E-03   0.0000000000E+00  -0.4086772478E-02
   0.2123996758E+00   0.4712286491E-01   0.8065982560E-04  -0.5448873357E-06   0.0000000000E+00   0.0000000000E+00   0.1299522169E-01   0.1557772621E-02   0.0000000000E+00  -0.3245820224E-02
   0.2043287537E+00   0.5739091165E-01   0.7850773989E-04  -0.9404493223E-06   0.0000000000E+00   0.0000000000E+00   0.1389125093E-01   0.7459119590E-03   0.0000000000E+00  -0.4018096265E-02
   0.7320843478E-01   0.1305663830E+00   0.2946547609E-04  -0.2567999378E-04   0.0000000000E+00   0.0000000000E+00   0.3591362038E-01  -0.1261527579E-02   0.0000000000E+00   0.8325983757E-03
   0.5551245940E-01   0.1224462220E+00   0.2483779944E-04  -0.2923795028E-04   0.0000000000E+00   0.0000000000E+00   0.3878435910E-01   0.1811942679E-02   0.0000000000E+00  -0.6743894363E-03
   0.8081292081E-01   0.1172540015E+00   0.3570040975E-04  -0.2208552815E-04   0.0000000000E+00   0.0000000000E+00   0.3441243898E-01  -0.2470042372E-02   0.0000000000E+00  -0.1538675463E-02
   0.6436047672E-01   0.1265063288E+00   0.2717942122E-04  -0.2743316672E-04   0.0000000000E+00   0.0000000000E+00   0.3733150271E-01   0.1956477006E-03   0.0000000000E+00   0.1387582634E-03
   0.5876632268E-01   0.1147043201E+00   0.2845607749E-04  -0.2761785755E-04   0.0000000000E+00   0.0000000000E+00   0.3965631990E-01   0.2125995181E-02   0.0000000000E+00  -0.2441904120E-02
   0.7141669014E-01   0.1121082938E+00   0.3402603713E-04  -0.2395718665E-04   0.0000000000E+00   0.0000000000E+00   0.3558732836E-01  -0.1059887967E-02   0.0000000000E+00  -0.2875611147E-02
   0.7701057010E-01   0.1239101652E+00   0.3247520068E-04  -0.2390984202E-04   0.0000000000E+00   0.0000000000E+00   0.3493741406E-01  -0.1873371215E-02   0.0000000000E+00  -0.3756157741E-03
   0.5834442033E-01   0.2499608545E+00   0.1108672857E-04  -0.3914550578E-04   0.0000000000E+00   0.0000000000E+00   0.2197693618E-01  -0.3308834113E-04   0.0000000000E+00   0.1176753237E-03
   0.6806884929E-01   0.2499623670E+00   0.1329408547E-04  -0.3763297073E-04   0.0000000000E+00   0.0000000000E+00   0.2336538087E-01  -0.8941201753E-05   0.0000000000E+00   0.6228426759E-04
   0.5827800100E-01   0.2411204974E+00   0.1227029698E-04  -0.3855456731E-04   0.0000000000E+00   0.0000000000E+00   0.2337723475E-01   0.4137870612E-04   0.0000000000E+00   0.1069459767E-02
   0.6811558172E-01   0.2320609234E+00   0.1577001873E-04  -0.3631460406E-04   0.0000000000E+00   0.0000000000E+00   0.2553136453E-01   0.3628694071E-04   0.0000000000E+00   0.2026001633E-02
   0.4601897989E-01   0.1196402274E+00   0.2185199178E-04  -0.3120656079E-04   0.0000000000E+00   0.0000000000E+00   0.4270521079E-01   0.3776609616E-02   0.0000000000E+00  -0.1512727186E-02
   0.7820916442E-01   0.2133876131E+00   0.2050662295E-04  -0.3301686029E-04   0.0000000000E+00   0.0000000000E+00   0.2810876634E-01  -0.8292142906E-04   0.0000000000E+00   0.3322785566E-02
   0.7801890503E-01   0.1934030943E+00   0.2240522949E-04  -0.3127874432E-04   0.0000000000E+00   0.0000000000E+00   0.2995727918E-01  -0.2624936853E-03   0.0000000000E+00   0.3898127045E-02
   0.6786525771E-01   0.2141380402E+00   0.1755881037E-04  -0.3494882157E-04   0.0000000000E+00   0.0000000000E+00   0.2752172693E-01   0.1666639831E-03   0.0000000000E+00   0.3180986825E-02
   0.6680855039E-01   0.1959880748E+00   0.1884139221E-04  -0.3363122216E-04   0.0000000000E+00   0.0000000000E+00   0.2949784015E-01   0.3458892785E-03   0.0000000000E+00   0.3789232984E-02
   0.7811404756E-01   0.2033953283E+00   0.2147246263E-04  -0.3216570239E-04   0.0000000000E+00   0.0000000000E+00   0.2903506055E-01  -0.1752731479E-03   0.0000000000E+00   0.3614012897E-02
   0.4862012322E-01   0.2499594969E+00   0.9011316468E-05  -0.4050305125E-04   0.0000000000E+00   0.0000000000E+00   0.2075000029E-01  -0.4054293317E-04   0.0000000000E+00   0.5164156638E-04
   0.3122802197E+00   0.1041667573E+00   0.9290571006E-04  -0.1314655417E-05   0.0000000000E+00   0.0000000000E+00   0.1953096016E-01   0.2472070469E-02   0.0000000000E+00  -0.1027117564E-02
   0.1768060282E+00   0.2157833205E+00   0.4958616847E-04  -0.1627954285E-04   0.0000000000E+00   0.0000000000E+00   0.3033428581E-01  -0.5194779688E-03   0.0000000000E+00   0.2175176847E-03
   0.1763887306E+00   0.2241307222E+00   0.4844857679E-04  -0.1713378948E-04   0.0000000000E+00   0.0000000000E+00   0.3084112401E-01  -0.3372700785E-03   0.0000000000E+00   0.2182548189E-03
   0.1865421408E+00   0.2156953605E+00   0.5255879637E-04  -0.1510050636E-04   0.0000000000E+00   0.0000000000E+00   0.3024299765E-01  -0.4577931730E-03   0.0000000000E+00  -0.3518340967E-04
   0.1958833979E+00   0.2240053151E+00   0.5448289094E-04  -0.1486793510E-04   0.0000000000E+00   0.0000000000E+00   0.3075908002E-01  -0.2475213301E-03   0.0000000000E+00  -0.1748157203E-03
   0.1857300202E+00   0.2324407861E+00   0.5037619247E-04  -0.1679193780E-04   0.0000000000E+00   0.0000000000E+00   0.3144101192E-01  -0.1170466635E-03   0.0000000000E+00   0.4171044939E-04
   0.3116003211E+00   0.1537260855E+00   0.9109905144E-04  -0.3621453003E-05   0.0000000000E+00   0.0000000000E+00   0.2358047782E-01   0.1202445838E-02   0.0000000000E+00  -0.9019455560E-03
   0.3212327859E+00   0.1537850004E+00   0.9333093468E-04  -0.3536646780E-05   0.0000000000E+00   0.0000000000E+00   0.2355012813E-01   0.1274110531E-02   0.0000000000E+00  -0.6797186296E-03
   0.3117450252E+00   0.1437586351E+00   0.9147117056E-04  -0.3058880925E-05   0.0000000000E+00   0.0000000000E+00   0.2276028483E-01   0.1441035537E-02   0.0000000000E+00  -0.9455398567E-03
   0.3115871446E+00   0.1734332511E+00   0.9043959700E-04  -0.4865914281E-05   0.0000000000E+00   0.0000000000E+00   0.2517162956E-01   0.7968839025E-03   0.0000000000E+00  -0.7808356396E-03
   0.3212302698E+00   0.1733714587E+00   0.9284182231E-04  -0.4758278992E-05   0.0000000000E+00   0.0000000000E+00   0.2512222701E-01   0.8546059267E-03   0.0000000000E+00  -0.5901368020E-03
   0.3115937291E+00   0.1635796830E+00   0.9076605481E-04  -0.4221951722E-05   0.0000000000E+00   0.0000000000E+00   0.2438462555E-01   0.1001908404E-02   0.0000000000E+00  -0.8401773256E-03
   0.2236719545E+00   0.2499851488E+00   0.6083847918E-04  -0.1485115747E-04   0.0000000000E+00   0.0000000000E+00   0.3260717545E-01   0.1313801283E-04   0.0000000000E+00  -0.6795394256E-05
   0.2246857786E+00   0.2321055852E+00   0.6260557279E-04  -0.1306581004E-04   0.0000000000E+00   0.0000000000E+00   0.3100773706E-01  -0.4483516284E-04   0.0000000000E+00  -0.3756896833E-03
   0.2789011217E+00   0.1827781420E-01   0.9038165367E-04  -0.2839540700E-07   0.0000000000E+00   0.0000000000E+00   0.1407919588E-01   0.3988360016E-02   0.0000000000E+00  -0.5917973117E-03
   0.2771736452E+00   0.0000000000E+00   0.9030819613E-04   0.0000000000E+00   0.0000000000E+00   0.0000000000E+00   0.1380494465E-01   0.4057449196E-02   0.0000000000E+00  -0.5213074928E-05
   0.2924961537E+00   0.2220778985E+00   0.8351471812E-04  -0.8978488572E-05   0.0000000000E+00   0.0000000000E+00   0.2896073390E-01   0.1038993602E-03   0.0000000000E+00  -0.5217384592E-03
   0.2733396823E+00   0.2223948731E+00   0.7792625369E-04  -0.9576916848E-05   0.0000000000E+00   0.0000000000E+00   0.2930266820E-01   0.5828648152E-04   0.0000000000E+00  -0.6207326623E-03
   0.1166929303E+00   0.2499710152E+00   0.2626334256E-04  -0.2898476747E-04   0.0000000000E+00   0.0000000000E+00   0.2973882701E-01   0.5709661393E-04   0.0000000000E+00   0.8409425683E-04
   0.1264180891E+00   0.2499727402E+00   0.2919610475E-04  -0.2725976589E-04   0.0000000000E+00   0.0000000000E+00   0.3060217415E-01   0.4309840133E-04   0.0000000000E+00   0.3502054227E-04
   0.1171201493E+00   0.2411903799E+00   0.2788233854E-04  -0.2812710286E-04   0.0000000000E+00   0.0000000000E+00   0.2948668056E-01  -0.6463347527E-04   0.0000000000E+00   0.8135146227E-03
   0.7076630177E-01   0.7068871581E-01   0.5562037015E-04  -0.2196559485E-04   0.0000000000E+00   0.0000000000E+00   0.1049948509E-01   0.9345680586E-02   0.0000000000E+00  -0.9327518417E-02
   0.8394518902E-01   0.7964786520E-01   0.5223262167E-04  -0.1710280002E-04   0.0000000000E+00   0.0000000000E+00   0.2062620514E-01  -0.1248429764E-02   0.0000000000E+00  -0.7444697552E-02
   0.7735534219E-01   0.7516862867E-01   0.5352698727E-04  -0.1919602922E-04   0.0000000000E+00   0.0000000000E+00   0.1587276609E-01   0.3361542460E-02   0.0000000000E+00  -0.8418354321E-02
   0.7795854491E-01   0.8688351300E-01   0.4710831404E-04  -0.1953010481E-04   0.0000000000E+00   0.0000000000E+00   0.2593138880E-01   0.3953968624E-03   0.0000000000E+00  -0.7543921668E-02
   0.6348943626E-01   0.7727664630E-01   0.5010435866E-04  -0.2440140356E-04   0.0000000000E+00   0.0000000000E+00   0.1928977166E-01   0.1207172320E-01   0.0000000000E+00  -0.1478586122E-01
   0.2350056739E+00   0.2143002796E+00   0.6721589192E-04  -0.1072444319E-04   0.0000000000E+00   0.0000000000E+00   0.2942288766E-01  -0.1152251311E-03   0.0000000000E+00  -0.7749894814E-03
   0.2152875641E+00   0.2236978719E+00   0.6046712929E-04  -0.1302305979E-04   0.0000000000E+00   0.0000000000E+00   0.3049446837E-01  -0.1577021372E-03   0.0000000000E+00  -0.4446986560E-03
   0.2253045720E+00   0.2147131072E+00   0.6431202288E-04  -0.1141884130E-04   0.0000000000E+00   0.0000000000E+00   0.2962970731E-01  -0.1780489057E-03   0.0000000000E+00  -0.6841164250E-03
   0.2347027275E+00   0.2231207423E+00   0.6640551175E-04  -0.1153967208E-04   0.0000000000E+00   0.0000000000E+00   0.3010710463E-01  -0.7508085370E-04   0.0000000000E+00  -0.6028638049E-03
   0.1847702401E+00   0.2499813913E+00   0.4802512249E-04  -0.1860868385E-04   0.0000000000E+00   0.0000000000E+00   0.3310124371E-01   0.3174131198E-04   0.0000000000E+00   0.3197290429E-05
   0.1774908145E+00   0.1998988395E+00   0.5172054959E-04  -0.1464753983E-04   0.0000000000E+00   0.0000000000E+00   0.2948123289E-01  -0.1007097683E-02   0.0000000000E+00   0.2634852009E-04
   0.1585696882E+00   0.1997702525E+00   0.4606915057E-04  -0.1718552952E-04   0.0000000000E+00   0.0000000000E+00   0.2976551171E-01  -0.1244257842E-02   0.0000000000E+00   0.7285315579E-03
   0.1597299439E+00   0.1838956482E+00   0.4848991671E-04  -0.1536281833E-04   0.0000000000E+00   0.0000000000E+00   0.2924430892E-01  -0.1909494165E-02   0.0000000000E+00   0.3251909912E-03
   0.1778658033E+00   0.1845742740E+00   0.5374828037E-04  -0.1307096475E-04   0.0000000000E+00   0.0000000000E+00   0.2871121182E-01  -0.1518704191E-02   0.0000000000E+00  -0.3557982186E-03
   0.1680302591E+00   0.1998346089E+00   0.4890314475E-04  -0.1586106119E-04   0.0000000000E+00   0.0000000000E+00   0.2961852145E-01  -0.1139618679E-02   0.0000000000E+00   0.3562232776E-03
   0.1591497978E+00   0.1918329487E+00   0.4726883336E-04  -0.1628331780E-04   0.0000000000E+00   0.0000000000E+00   0.2951203879E-01  -0.1571940527E-02   0.0000000000E+00   0.5372117605E-03
   0.1687978885E+00   0.1842350131E+00   0.5113350698E-04  -0.1416489799E-04   0.0000000000E+00   0.0000000000E+00   0.2897418252E-01  -0.1725602690E-02   0.0000000000E+00  -0.3424187408E-04
   0.1776782912E+00   0.1922365518E+00   0.5272424180E-04  -0.1386419870E-04   0.0000000000E+00   0.0000000000E+00   0.2909774027E-01  -0.1263652145E-02   0.0000000000E+00  -0.1556262384E-03
   0.2543716678E+00   0.2137087513E+00   0.7292077428E-04  -0.9603669008E-05   0.0000000000E+00   0.0000000000E+00   0.2901057564E-01  -0.1571710369E-05   0.0000000000E+00  -0.8344523436E-03
   0.2540700856E+00   0.2227608116E+00   0.7222356669E-04  -0.1041538973E-04   0.0000000000E+00   0.0000000000E+00   0.2969859278E-01  -0.1467561040E-05   0.0000000000E+00  -0.6540742151E-03
   0.2639770683E+00   0.2134216963E+00   0.7571531221E-04  -0.9155746875E-05   0.0000000000E+00   0.0000000000E+00   0.2881983133E-01   0.4939680010E-04   0.0000000000E+00  -0.8116533011E-03
   0.3118008163E+00   0.2123247493E+00   0.8932629273E-04  -0.7782736175E-05   0.0000000000E+00   0.0000000000E+00   0.2806150053E-01   0.2118541495E-03   0.0000000000E+00  -0.4738848837E-03
   0.3117552229E+00   0.1930268949E+00   0.8986692825E-04  -0.6264095692E-05   0.0000000000E+00   0.0000000000E+00   0.2668061821E-01   0.4655981065E-03   0.0000000000E+00  -0.6366793346E-03
   0.3117780118E+00   0.2026758457E+00   0.8958877034E-04  -0.7007323832E-05   0.0000000000E+00   0.0000000000E+00   0.2739167807E-01   0.3452057155E-03   0.0000000000E+00  -0.5535118081E-03
   0.3213466065E+00   0.1928612607E+00   0.9241252838E-04  -0.6137256380E-05   0.0000000000E+00   0.0000000000E+00   0.2661464071E-01   0.5051430889E-03   0.0000000000E+00  -0.4830248369E-03
   0.3214019677E+00   0.2121490529E+00   0.9201366983E-04  -0.7645067399E-05   0.0000000000E+00   0.0000000000E+00   0.2798301818E-01   0.2339247604E-03   0.0000000000E+00  -0.3595502285E-03
   0.3022237701E+00   0.2125003313E+00   0.8663405089E-04  -0.7959703837E-05   0.0000000000E+00   0.0000000000E+00   0.2818506296E-01   0.1929806701E-03   0.0000000000E+00  -0.5668033033E-03
   0.3021294268E+00   0.1932335402E+00   0.8729980012E-04  -0.6431791515E-05   0.0000000000E+00   0.0000000000E+00   0.2679135678E-01   0.4216332403E-03   0.0000000000E+00  -0.7675743548E-03
   0.1076744482E+00   0.2322170490E+00   0.2650720857E-04  -0.2908204924E-04   0.0000000000E+00   0.0000000000E+00   0.2872864560E-01  -0.1509360644E-03   0.0000000000E+00   0.1685110338E-02
   0.1069678718E+00   0.2499692524E+00   0.2342981992E-04  -0.3074756465E-04   0.0000000000E+00   0.0000000000E+00   0.2859620522E-01   0.3444799830E-04   0.0000000000E+00   0.4842043688E-04
   0.6711755502E-01   0.1440426785E+00   0.2464461558E-04  -0.2866252645E-04   0.0000000000E+00   0.0000000000E+00   0.3531731115E-01   0.8068890943E-04   0.0000000000E+00   0.2534471645E-02
   0.6213744471E-01   0.1546086023E+00   0.2137310703E-04  -0.3083572857E-04   0.0000000000E+00   0.0000000000E+00   0.3451235590E-01   0.7757090706E-03   0.0000000000E+00   0.3411031743E-02
   0.5909583874E-01   0.1413402610E+00   0.2222664300E-04  -0.3022895575E-04   0.0000000000E+00   0.0000000000E+00   0.3655221497E-01   0.1130743115E-02   0.0000000000E+00   0.2403490264E-02
   0.6462744165E-01   0.1493256071E+00   0.2295064768E-04  -0.2977490137E-04   0.0000000000E+00   0.0000000000E+00   0.3502287282E-01   0.4941197220E-03   0.0000000000E+00   0.2993658275E-02
   0.5560065351E-01   0.1543175403E+00   0.1916580937E-04  -0.3217466150E-04   0.0000000000E+00   0.0000000000E+00   0.3488969891E-01   0.1745438234E-02   0.0000000000E+00   0.3301361458E-02
   0.3545488030E-01   0.1262696782E+00   0.1582120312E-04  -0.3391981738E-04   0.0000000000E+00   0.0000000000E+00   0.4388350928E-01   0.5462616292E-02   0.0000000000E+00  -0.5372507353E-03
   0.5329303545E-01   0.1305420332E+00   0.2206964611E-04  -0.3052376522E-04   0.0000000000E+00   0.0000000000E+00   0.3862132495E-01   0.2407686894E-02   0.0000000000E+00   0.8032486720E-03
   0.7736161636E-01   0.6341996597E-01   0.6056866491E-04  -0.1936592624E-04   0.0000000000E+00   0.0000000000E+00   0.4179680718E-02   0.4971004168E-02   0.0000000000E+00  -0.4616129133E-02
   0.9005941852E-01   0.7158904267E-01   0.5738842314E-04  -0.1453863440E-04   0.0000000000E+00   0.0000000000E+00   0.1516217822E-01  -0.3033282872E-02   0.0000000000E+00  -0.6380808473E-02
   0.1526110846E+00   0.3951418502E-01   0.7519862292E-04  -0.1533779206E-05   0.0000000000E+00   0.0000000000E+00   0.7873243648E-02  -0.2527927245E-02   0.0000000000E+00  -0.5247190724E-02
   0.1354255130E+00   0.4589572846E-01   0.7232002508E-04  -0.3010736007E-05   0.0000000000E+00   0.0000000000E+00   0.7816252336E-02  -0.4998869675E-02   0.0000000000E+00  -0.6011080086E-02
   0.1491792198E+00   0.3024742023E-01   0.7644280722E-04  -0.1219870851E-05   0.0000000000E+00   0.0000000000E+00   0.5659680113E-02  -0.3107497228E-02   0.0000000000E+00  -0.4253928153E-02
   0.1440183650E+00   0.4270506672E-01   0.7383296796E-04  -0.2160482017E-05   0.0000000000E+00   0.0000000000E+00   0.7742541415E-02  -0.4030878116E-02   0.0000000000E+00  -0.5628439908E-02
   0.1286160888E+00   0.3600264291E-01   0.7405277829E-04  -0.2880191818E-05   0.0000000000E+00   0.0000000000E+00   0.4586751909E-02  -0.6681006530E-02   0.0000000000E+00  -0.4646749085E-02
   0.9576803243E-01   0.2902009424E-01   0.7399713065E-04  -0.8373563713E-05   0.0000000000E+00   0.0000000000E+00  -0.2451924709E-02  -0.1989251275E-01   0.0000000000E+00   0.5148829238E-02
   0.1149620538E+00   0.3610079561E-01   0.7319177268E-04  -0.4628588734E-05   0.0000000000E+00   0.0000000000E+00   0.2331007426E-02  -0.9810740522E-02   0.0000000000E+00  -0.3413826517E-02
   0.1625793302E+00   0.0000000000E+00   0.7933618408E-04   0.0000000000E+00   0.0000000000E+00   0.0000000000E+00   0.4706102561E-02  -0.7902957684E-03   0.0000000000E+00  -0.4913880930E-04
   0.1665087107E+00   0.1949833052E-01   0.7875874850E-04  -0.4256819801E-06   0.0000000000E+00   0.0000000000E+00   0.6266731778E-02  -0.5390559271E-03   0.0000000000E+00  -0.2651757819E-02
   0.1645442125E+00   0.9749165419E-02   0.7923249155E-04  -0.2126613419E-06   0.0000000000E+00   0.0000000000E+00   0.5273992724E-02  -0.7159422716E-03   0.0000000000E+00  -0.1323198518E-02
   0.1561278854E+00   0.2023954387E-01   0.7806741571E-04  -0.6139280871E-06   0.0000000000E+00   0.0000000000E+00   0.5103049353E-02  -0.1787206317E-02   0.0000000000E+00  -0.2900528828E-02
   0.1521622060E+00   0.0000000000E+00   0.7886895296E-04   0.0000000000E+00   0.0000000000E+00   0.0000000000E+00   0.3357504947E-02  -0.2169376148E-02   0.0000000000E+00  -0.9683406645E-04
   0.2146665733E+00   0.0000000000E+00   0.8323629893E-04   0.0000000000E+00   0.0000000000E+00   0.0000000000E+00   0.1041893361E-01   0.2672772501E-02   0.0000000000E+00  -0.1732152701E-04
   0.2755281142E+00   0.9272295133E-01   0.8670617371E-04  -0.1208071222E-05   0.0000000000E+00   0.0000000000E+00   0.1854625016E-01   0.2203312204E-02   0.0000000000E+00  -0.2047408625E-02
   0.2937175087E+00   0.9348952539E-01   0.8991872422E-04  -0.1082609095E-05   0.0000000000E+00   0.0000000000E+00   0.1866369311E-01   0.2530221026E-02   0.0000000000E+00  -0.1532433519E-02
   0.2938587318E+00   0.1128470376E+00   0.8901483334E-04  -0.1773366315E-05   0.0000000000E+00   0.0000000000E+00   0.2025047672E-01   0.1995493008E-02   0.0000000000E+00  -0.1529841226E-02
   0.2759894684E+00   0.1113726270E+00   0.8558737738E-04  -0.1923030653E-05   0.0000000000E+00   0.0000000000E+00   0.2017892127E-01   0.1692586885E-02   0.0000000000E+00  -0.2014859114E-02
   0.2846228246E+00   0.9310624875E-01   0.8831055096E-04  -0.1138648114E-05   0.0000000000E+00   0.0000000000E+00   0.1860999348E-01   0.2383387772E-02   0.0000000000E+00  -0.1784275520E-02
   0.2937881418E+00   0.1031683053E+00   0.8947383323E-04  -0.1403706793E-05   0.0000000000E+00   0.0000000000E+00   0.1944410765E-01   0.2259037911E-02   0.0000000000E+00  -0.1532823880E-02
   0.2849240976E+00   0.1121098406E+00   0.8729859703E-04  -0.1839433740E-05   0.0000000000E+00   0.0000000000E+00   0.2021888124E-01   0.1858684667E-02   0.0000000000E+00  -0.1769445572E-02
   0.2757587976E+00   0.1020478085E+00   0.8615363435E-04  -0.1542471450E-05   0.0000000000E+00   0.0000000000E+00   0.1935422118E-01   0.1944325618E-02   0.0000000000E+00  -0.2032174571E-02
   0.2929656824E+00   0.7443806876E-01   0.9063135276E-04  -0.5925370935E-06   0.0000000000E+00   0.0000000000E+00   0.1722171728E-01   0.3047988371E-02   0.0000000000E+00  -0.1442575008E-02
   0.2933416211E+00   0.8396381568E-01   0.9028512642E-04  -0.8153241016E-06   0.0000000000E+00   0.0000000000E+00   0.1791915486E-01   0.2781940125E-02   0.0000000000E+00  -0.1489593412E-02
   0.3024354741E+00   0.7479152361E-01   0.9216506906E-04  -0.5634944880E-06   0.0000000000E+00   0.0000000000E+00   0.1732159499E-01   0.3164701034E-02   0.0000000000E+00  -0.1193204288E-02
   0.3029996854E+00   0.9394457534E-01   0.9156235640E-04  -0.1039660454E-05   0.0000000000E+00   0.0000000000E+00   0.1872759673E-01   0.2651946448E-02   0.0000000000E+00  -0.1273584824E-02
   0.3030686596E+00   0.1133904535E+00   0.9079964342E-04  -0.1713470029E-05   0.0000000000E+00   0.0000000000E+00   0.2028374970E-01   0.2117218753E-02   0.0000000000E+00  -0.1278065790E-02
   0.1771484182E+00   0.2078410684E+00   0.5065019384E-04  -0.1546763730E-04   0.0000000000E+00   0.0000000000E+00   0.2988725488E-01  -0.7710359226E-03   0.0000000000E+00   0.1300613107E-03
   0.1671365222E+00   0.2158609533E+00   0.4662817884E-04  -0.1756273840E-04   0.0000000000E+00   0.0000000000E+00   0.3032934620E-01  -0.5900625088E-03   0.0000000000E+00   0.5022711152E-03
   0.1580183529E+00   0.2078543700E+00   0.4486991156E-04  -0.1807997583E-04   0.0000000000E+00   0.0000000000E+00   0.3002700077E-01  -0.9435985836E-03   0.0000000000E+00   0.7870961200E-03
   0.1766485214E+00   0.1925553037E-01   0.7947641942E-04  -0.3089295346E-06   0.0000000000E+00   0.0000000000E+00   0.7438418825E-02   0.3677520644E-03   0.0000000000E+00  -0.2334956124E-02
   0.1729965796E+00   0.0000000000E+00   0.7991362339E-04   0.0000000000E+00   0.0000000000E+00   0.0000000000E+00   0.6164225646E-02   0.2956631830E-03   0.0000000000E+00  -0.3837162085E-04
   0.1711660351E+00   0.3888130968E-01   0.7699711542E-04  -0.9198232454E-06   0.0000000000E+00   0.0000000000E+00   0.9374702394E-02  -0.7341962687E-03   0.0000000000E+00  -0.4511449788E-02
   0.1688374945E+00   0.2918984132E-01   0.7799950934E-04  -0.6505776574E-06   0.0000000000E+00   0.0000000000E+00   0.7669974963E-02  -0.6545711769E-03   0.0000000000E+00  -0.3570421604E-02
   0.1808514466E+00   0.3863164210E-01   0.7797955915E-04  -0.7209982356E-06   0.0000000000E+00   0.0000000000E+00   0.1007504109E-01   0.5049866482E-04   0.0000000000E+00  -0.4030454080E-02
   0.2930524518E+00   0.1327466666E+00   0.8784476916E-04  -0.2697409786E-05   0.0000000000E+00   0.0000000000E+00   0.2193898492E-01   0.1465095612E-02   0.0000000000E+00  -0.1462194875E-02
   0.3024710601E+00   0.1332689054E+00   0.8984312238E-04  -0.2609606811E-05   0.0000000000E+00   0.0000000000E+00   0.2194151691E-01   0.1590584903E-02   0.0000000000E+00  -0.1224297432E-02
   0.2934555833E+00   0.1227968745E+00   0.8843627262E-04  -0.2209472501E-05   0.0000000000E+00   0.0000000000E+00   0.2109184117E-01   0.1730323746E-02   0.0000000000E+00  -0.1496494099E-02
   0.5193044956E-01   0.1833332750E+00   0.1537765662E-04  -0.3521402046E-04   0.0000000000E+00   0.0000000000E+00   0.3082746212E-01   0.1511436275E-02   0.0000000000E+00   0.3805556376E-02
   0.4322690978E-01   0.1837872364E+00   0.1272278430E-04  -0.3661763698E-04   0.0000000000E+00   0.0000000000E+00   0.3066846389E-01   0.2200523187E-02   0.0000000000E+00   0.3387018517E-02
   0.5376438767E-01   0.1909532509E+00   0.1539256855E-04  -0.3549813788E-04   0.0000000000E+00   0.0000000000E+00   0.2981806497E-01   0.1176210212E-02   0.0000000000E+00   0.3705531942E-02
   0.5043639891E-01   0.1685577056E+00   0.1603271326E-04  -0.3433043561E-04   0.0000000000E+00   0.0000000000E+00   0.3292080652E-01   0.2111450257E-02   0.0000000000E+00   0.3761113642E-02
   0.5118340455E-01   0.1759454990E+00   0.1568545090E-04  -0.3477104353E-04   0.0000000000E+00   0.0000000000E+00   0.3181962710E-01   0.1801202907E-02   0.0000000000E+00   0.3752386777E-02
   0.4191873171E-01   0.1685636964E+00   0.1329130595E-04  -0.3576063160E-04   0.0000000000E+00   0.0000000000E+00   0.3300334317E-01   0.3024871596E-02   0.0000000000E+00   0.3341050426E-02
   0.4975008330E-01   0.1612921176E+00   0.1644829507E-04  -0.3388844386E-04   0.0000000000E+00   0.0000000000E+00   0.3402899941E-01   0.2379345214E-02   0.0000000000E+00   0.3502226094E-02
   0.2918309690E+00   0.5550554880E-01   0.9117700850E-04  -0.2745027126E-06   0.0000000000E+00   0.0000000000E+00   0.1597871053E-01   0.3513137492E-02   0.0000000000E+00  -0.1240025840E-02
   0.2923983552E+00   0.6497183009E-01   0.9091918069E-04  -0.4141121731E-06   0.0000000000E+00   0.0000000000E+00   0.1656478916E-01   0.3270331384E-02   0.0000000000E+00  -0.1343714747E-02
   0.3015349769E+00   0.5577925202E-01   0.9262187388E-04  -0.2571768520E-06   0.0000000000E+00   0.0000000000E+00   0.1612126938E-01   0.3620432381E-02   0.0000000000E+00  -0.1021430391E-02
   0.2917518095E+00   0.1532902904E+00   0.8649350734E-04  -0.3870570752E-05   0.0000000000E+00   0.0000000000E+00   0.2368446975E-01   0.9970180613E-03   0.0000000000E+00  -0.1328330522E-02
   0.2924021201E+00   0.1430185039E+00   0.8717313950E-04  -0.3258053685E-05   0.0000000000E+00   0.0000000000E+00   0.2282069648E-01   0.1234296008E-02   0.0000000000E+00  -0.1394261463E-02
   0.3016760836E+00   0.1535082115E+00   0.8879955548E-04  -0.3729489433E-05   0.0000000000E+00   0.0000000000E+00   0.2363629484E-01   0.1115292623E-02   0.0000000000E+00  -0.1114836439E-02
   0.2706554235E+00   0.3669241076E-01   0.8884049014E-04  -0.1266383341E-06   0.0000000000E+00   0.0000000000E+00   0.1450693707E-01   0.3600797746E-02   0.0000000000E+00  -0.1280185931E-02
   0.2507761448E+00   0.3681407071E-01   0.8622080257E-04  -0.1718859765E-06   0.0000000000E+00   0.0000000000E+00   0.1384187129E-01   0.3198469513E-02   0.0000000000E+00  -0.1704784514E-02
   0.2696852761E+00   0.2749195388E-01   0.8899711391E-04  -0.7011817687E-07   0.0000000000E+00   0.0000000000E+00   0.1407503462E-01   0.3710596770E-02   0.0000000000E+00  -0.9901323390E-03
   0.2607157703E+00   0.3675324317E-01   0.8751725822E-04  -0.1468255231E-06   0.0000000000E+00   0.0000000000E+00   0.1417786312E-01   0.3409665677E-02   0.0000000000E+00  -0.1480480159E-02
   0.2495545838E+00   0.2757823544E-01   0.8645084549E-04  -0.9985790054E-07   0.0000000000E+00   0.0000000000E+00   0.1330783410E-01   0.3322217878E-02   0.0000000000E+00  -0.1323389649E-02
   0.2336177477E+00   0.5569962525E-01   0.8272569694E-04  -0.5539506202E-06   0.0000000000E+00   0.0000000000E+00   0.1464519511E-01   0.2144381209E-02   0.0000000000E+00  -0.2863107013E-02
   0.2531228497E+00   0.5532705506E-01   0.8551674012E-04  -0.4162388788E-06   0.0000000000E+00   0.0000000000E+00   0.1516612543E-01   0.2763455149E-02   0.0000000000E+00  -0.2238486074E-02
   0.2321598944E+00   0.4637379428E-01   0.8324944373E-04  -0.3777214978E-06   0.0000000000E+00   0.0000000000E+00   0.1376908569E-01   0.2377041796E-02   0.0000000000E+00  -0.2547869591E-02
   0.2407390500E+00   0.3693099794E-01   0.8493900431E-04  -0.2038587897E-06   0.0000000000E+00   0.0000000000E+00   0.1342214484E-01   0.2931005898E-02   0.0000000000E+00  -0.1944524086E-02
   0.2519495318E+00   0.4607058296E-01   0.8590275636E-04  -0.2758430823E-06   0.0000000000E+00   0.0000000000E+00   0.1445504603E-01   0.2967635427E-02   0.0000000000E+00  -0.1975685921E-02
   0.2433702922E+00   0.5551334709E-01   0.8411420839E-04  -0.4782104350E-06   0.0000000000E+00   0.0000000000E+00   0.1491455426E-01   0.2473915784E-02   0.0000000000E+00  -0.2532787121E-02
   0.2805935168E+00   0.3673477543E-01   0.9018379492E-04  -0.1110676334E-06   0.0000000000E+00   0.0000000000E+00   0.1476296323E-01   0.3748603868E-02   0.0000000000E+00  -0.1091822725E-02
   0.3116711631E+00   0.1832300992E+00   0.9014707826E-04  -0.5545827475E-05   0.0000000000E+00   0.0000000000E+00   0.2594127625E-01   0.6357318913E-03   0.0000000000E+00  -0.7065647465E-03
   0.2446886750E+00   0.2140045534E+00   0.7007997514E-04  -0.1012564330E-04   0.0000000000E+00   0.0000000000E+00   0.2921723900E-01  -0.5496122196E-04   0.0000000000E+00  -0.8064440721E-03
   0.2349343772E+00   0.1970453390E+00   0.6868222387E-04  -0.9210981484E-05   0.0000000000E+00   0.0000000000E+00   0.2812193238E-01  -0.2121312455E-03   0.0000000000E+00  -0.1104440560E-02
   0.2542951306E+00   0.1956670747E+00   0.7419758477E-04  -0.8075319624E-05   0.0000000000E+00   0.0000000000E+00   0.2764200950E-01   0.1689800490E-04   0.0000000000E+00  -0.1158651683E-02
   0.2446147695E+00   0.1963562451E+00   0.7145546099E-04  -0.8604861007E-05   0.0000000000E+00   0.0000000000E+00   0.2788168095E-01  -0.9369785815E-04   0.0000000000E+00  -0.1135883039E-02
   0.2543333703E+00   0.2046879152E+00   0.7354533844E-04  -0.8829792888E-05   0.0000000000E+00   0.0000000000E+00   0.2833237361E-01   0.9199618856E-05   0.0000000000E+00  -0.9910031304E-03
   0.2349700200E+00   0.2056728226E+00   0.6793602645E-04  -0.9961361182E-05   0.0000000000E+00   0.0000000000E+00   0.2877054955E-01  -0.1649886504E-03   0.0000000000E+00  -0.9333223682E-03
   0.1596376616E+00   0.7269232153E-01   0.6924764314E-04  -0.3336065928E-05   0.0000000000E+00   0.0000000000E+00   0.1588477167E-01  -0.3272477743E-02   0.0000000000E+00  -0.6172535017E-02
   0.1738107623E+00   0.6065988450E-01   0.7383232860E-04  -0.1833701129E-05   0.0000000000E+00   0.0000000000E+00   0.1348564846E-01  -0.1481089652E-02   0.0000000000E+00  -0.5525260985E-02
   0.1841911267E+00   0.8233653325E-01   0.7163374747E-04  -0.2775946631E-05   0.0000000000E+00   0.0000000000E+00   0.1750702650E-01  -0.1636686916E-02   0.0000000000E+00  -0.5142656149E-02
   0.1694678712E+00   0.8995011374E-01   0.6737318760E-04  -0.4165655974E-05   0.0000000000E+00   0.0000000000E+00   0.1927037151E-01  -0.3031405644E-02   0.0000000000E+00  -0.5394614064E-02
   0.1667243386E+00   0.6667618814E-01   0.7165957526E-04  -0.2499760579E-05   0.0000000000E+00   0.0000000000E+00   0.1457735878E-01  -0.2440586139E-02   0.0000000000E+00  -0.5869175024E-02
   0.1790008869E+00   0.7149823126E-01   0.7267586813E-04  -0.2278740379E-05   0.0000000000E+00   0.0000000000E+00   0.1559912125E-01  -0.1543008520E-02   0.0000000000E+00  -0.5360242395E-02
   0.1768295572E+00   0.8614338106E-01   0.6956920208E-04  -0.3413236053E-05   0.0000000000E+00   0.0000000000E+00   0.1836065117E-01  -0.2349642022E-02   0.0000000000E+00  -0.5293248409E-02
   0.1645526868E+00   0.8132122565E-01   0.6823076215E-04  -0.3739154991E-05   0.0000000000E+00   0.0000000000E+00   0.1776723103E-01  -0.3098318697E-02   0.0000000000E+00  -0.5840829040E-02
   0.3019685032E+00   0.2313713807E+00   0.8596815992E-04  -0.9573311969E-05   0.0000000000E+00   0.0000000000E+00   0.2942618578E-01   0.4321266582E-04   0.0000000000E+00  -0.3270373029E-03
   0.3116960531E+00   0.2217938099E+00   0.8905008056E-04  -0.8574064662E-05   0.0000000000E+00   0.0000000000E+00   0.2869535657E-01   0.1363620002E-03   0.0000000000E+00  -0.3745879948E-03
   0.3014742384E+00   0.2499887457E+00   0.8534838136E-04  -0.1125429987E-04   0.0000000000E+00   0.0000000000E+00   0.3048454225E-01  -0.1297738801E-04   0.0000000000E+00  -0.7067989065E-05
   0.9886521006E-01   0.2141802359E+00   0.2632936094E-04  -0.2914210104E-04   0.0000000000E+00   0.0000000000E+00   0.2895076250E-01  -0.4691479756E-03   0.0000000000E+00   0.2938318978E-02
   0.9833351961E-01   0.2231022641E+00   0.2507561134E-04  -0.3004793994E-04   0.0000000000E+00   0.0000000000E+00   0.2846421524E-01  -0.2955693414E-03   0.0000000000E+00   0.2434623666E-02
   0.1088889555E+00   0.2147012718E+00   0.2920049023E-04  -0.2726220050E-04   0.0000000000E+00   0.0000000000E+00   0.2928262635E-01  -0.6082863530E-03   0.0000000000E+00   0.2568755857E-02
   0.7811457115E-01   0.2226147088E+00   0.1949265159E-04  -0.3380720375E-04   0.0000000000E+00   0.0000000000E+00   0.2724721197E-01  -0.5454514656E-04   0.0000000000E+00   0.2720535575E-02
   0.8853716391E-01   0.2137839057E+00   0.2339470609E-04  -0.3109825785E-04   0.0000000000E+00   0.0000000000E+00   0.2852348830E-01  -0.3278660368E-03   0.0000000000E+00   0.3095615219E-02
   0.1397861676E+00   0.1993660571E+00   0.4044057992E-04  -0.2010793881E-04   0.0000000000E+00   0.0000000000E+00   0.2994262028E-01  -0.1379181787E-02   0.0000000000E+00   0.1553758468E-02
   0.1209229867E+00   0.1986158977E+00   0.3480573591E-04  -0.2339126643E-04   0.0000000000E+00   0.0000000000E+00   0.3000325784E-01  -0.1341420056E-02   0.0000000000E+00   0.2428937988E-02
   0.1390195657E+00   0.2075783857E+00   0.3914774836E-04  -0.2107527889E-04   0.0000000000E+00   0.0000000000E+00   0.3000305796E-01  -0.1037436951E-02   0.0000000000E+00   0.1549391818E-02
   0.1199178641E+00   0.2069190755E+00   0.3346214647E-04  -0.2442152103E-04   0.0000000000E+00   0.0000000000E+00   0.2981137155E-01  -0.9994341612E-03   0.0000000000E+00   0.2354473329E-02
   0.1303545828E+00   0.1989910203E+00   0.3762484384E-04  -0.2170674896E-04   0.0000000000E+00   0.0000000000E+00   0.2996416438E-01  -0.1405541055E-02   0.0000000000E+00   0.1962594102E-02
   0.2252782954E+00   0.1977135065E+00   0.6588542229E-04  -0.9897473905E-05   0.0000000000E+00   0.0000000000E+00   0.2837155548E-01  -0.3413392730E-03   0.0000000000E+00  -0.1007305690E-02
   0.2182498298E+00   0.7553531069E-01   0.7842683965E-04  -0.1387405213E-05   0.0000000000E+00   0.0000000000E+00   0.1647880972E-01   0.7481610222E-03   0.0000000000E+00  -0.3832326110E-02
   0.2162118443E+00   0.6607408310E-01   0.7920326477E-04  -0.1055602658E-05   0.0000000000E+00   0.0000000000E+00   0.1529282256E-01   0.1020929193E-02   0.0000000000E+00  -0.3726291136E-02
   0.2238957892E+00   0.5615622804E-01   0.8133116897E-04  -0.6531602898E-06   0.0000000000E+00   0.0000000000E+00   0.1439461873E-01   0.1746999149E-02   0.0000000000E+00  -0.3209588334E-02
   0.2351118584E+00   0.6500741000E-01   0.8214641685E-04  -0.7757972033E-06   0.0000000000E+00   0.0000000000E+00   0.1558229062E-01   0.1869380788E-02   0.0000000000E+00  -0.3011935800E-02
   0.2274278936E+00   0.7492525000E-01   0.7998359848E-04  -0.1200795762E-05   0.0000000000E+00   0.0000000000E+00   0.1652600446E-01   0.1202606371E-02   0.0000000000E+00  -0.3472104909E-02
   0.8033392599E-01   0.1527684931E+00   0.2785048748E-04  -0.2661286778E-04   0.0000000000E+00   0.0000000000E+00   0.3361419562E-01  -0.1445513595E-02   0.0000000000E+00   0.2872466657E-02
   0.6985814734E-01   0.1667104901E+00   0.2252924137E-04  -0.3037486120E-04   0.0000000000E+00   0.0000000000E+00   0.3273768299E-01   0.1198189623E-04   0.0000000000E+00   0.3804423032E-02
   0.7372574485E-01   0.1484056032E+00   0.2625565075E-04  -0.2761982602E-04   0.0000000000E+00   0.0000000000E+00   0.3440070023E-01  -0.8222990194E-03   0.0000000000E+00   0.2729656756E-02
   0.7509594497E-01   0.1597394395E+00   0.2510187439E-04  -0.2854553420E-04   0.0000000000E+00   0.0000000000E+00   0.3329901344E-01  -0.6143581536E-03   0.0000000000E+00   0.3382646187E-02
   0.6599778733E-01   0.1606595631E+00   0.2194242967E-04  -0.3059586176E-04   0.0000000000E+00   0.0000000000E+00   0.3358985423E-01   0.3602691845E-03   0.0000000000E+00   0.3639482374E-02
   0.1414884413E+00   0.1830969278E+00   0.4310228015E-04  -0.1807724360E-04   0.0000000000E+00   0.0000000000E+00   0.2979479790E-01  -0.2166659848E-02   0.0000000000E+00   0.1166121144E-02
   0.1506091993E+00   0.1834963485E+00   0.4581026810E-04  -0.1666749920E-04   0.0000000000E+00   0.0000000000E+00   0.2951240048E-01  -0.2067808071E-02   0.0000000000E+00   0.7209468798E-03
   0.1491779260E+00   0.1995682140E+00   0.4326000314E-04  -0.1859497270E-04   0.0000000000E+00   0.0000000000E+00   0.2984735355E-01  -0.1338790817E-02   0.0000000000E+00   0.1116405933E-02
   0.1406372846E+00   0.1912314854E+00   0.4175856599E-04  -0.1910663715E-04   0.0000000000E+00   0.0000000000E+00   0.2988450418E-01  -0.1767419735E-02   0.0000000000E+00   0.1370246435E-02
   0.2725830964E+00   0.1745007585E+00   0.8055435002E-04  -0.5741461951E-05   0.0000000000E+00   0.0000000000E+00   0.2566888561E-01   0.3901804659E-03   0.0000000000E+00  -0.1382560965E-02
   0.2920285179E+00   0.1736239240E+00   0.8553388682E-04  -0.5195963368E-05   0.0000000000E+00   0.0000000000E+00   0.2535172695E-01   0.6317401899E-03   0.0000000000E+00  -0.1122873615E-02
   0.2823058035E+00   0.1740623652E+00   0.8305549195E-04  -0.5444823582E-05   0.0000000000E+00   0.0000000000E+00   0.2551412522E-01   0.5269326584E-03   0.0000000000E+00  -0.1252128377E-02
   0.2922660713E+00   0.1835320600E+00   0.8511630931E-04  -0.5899958129E-05   0.0000000000E+00   0.0000000000E+00   0.2614069700E-01   0.5017265267E-03   0.0000000000E+00  -0.1006865045E-02
   0.2730090427E+00   0.1843830351E+00   0.8002968395E-04  -0.6466863182E-05   0.0000000000E+00   0.0000000000E+00   0.2645613200E-01   0.3040124944E-03   0.0000000000E+00  -0.1227253927E-02
   0.9429689930E-01   0.1610157850E+00   0.3130419645E-04  -0.2450601653E-04   0.0000000000E+00   0.0000000000E+00   0.3220459834E-01  -0.2289436975E-02   0.0000000000E+00   0.2735998996E-02
   0.8720670644E-01   0.1754561963E+00   0.2713503613E-04  -0.2764169054E-04   0.0000000000E+00   0.0000000000E+00   0.3148464879E-01  -0.1183362540E-02   0.0000000000E+00   0.3594275154E-02
   0.9075174420E-01   0.1682359628E+00   0.2916100429E-04  -0.2610121907E-04   0.0000000000E+00   0.0000000000E+00   0.3196792810E-01  -0.1677802729E-02   0.0000000000E+00   0.3212259078E-02
   0.7853245180E-01   0.1710833601E+00   0.2485699754E-04  -0.2899887040E-04   0.0000000000E+00   0.0000000000E+00   0.3205322596E-01  -0.6961064425E-03   0.0000000000E+00   0.3720598313E-02
   0.8731542133E-01   0.1568921555E+00   0.2958973459E-04  -0.2553550673E-04   0.0000000000E+00   0.0000000000E+00   0.3286103839E-01  -0.1984948664E-02   0.0000000000E+00   0.2834355595E-02
   0.2741685037E+00   0.7397280322E-01   0.8760165611E-04  -0.6810830205E-06   0.0000000000E+00   0.0000000000E+00   0.1699347137E-01   0.2722473248E-02   0.0000000000E+00  -0.1959209777E-02
   0.2748483047E+00   0.8334790336E-01   0.8716469404E-04  -0.9222381180E-06   0.0000000000E+00   0.0000000000E+00   0.1775111156E-01   0.2456736242E-02   0.0000000000E+00  -0.2006022113E-02
   0.2835670747E+00   0.7420543701E-01   0.8911266648E-04  -0.6320894895E-06   0.0000000000E+00   0.0000000000E+00   0.1711199890E-01   0.2898849552E-02   0.0000000000E+00  -0.1693894025E-02
   0.2262233670E+00   0.1122978326E+00   0.7547697737E-04  -0.3114441172E-05   0.0000000000E+00   0.0000000000E+00   0.2079177706E-01  -0.2086458001E-04   0.0000000000E+00  -0.3275782424E-02
   0.2225217184E+00   0.9418239967E-01   0.7693043323E-04  -0.2177828370E-05   0.0000000000E+00   0.0000000000E+00   0.1875202793E-01   0.3032328207E-03   0.0000000000E+00  -0.3659700568E-02
   0.2243725198E+00   0.1032401336E+00   0.7618883196E-04  -0.2628380432E-05   0.0000000000E+00   0.0000000000E+00   0.1981049863E-01   0.1493439163E-03   0.0000000000E+00  -0.3467043111E-02
   0.2309910502E+00   0.9343101854E-01   0.7858817651E-04  -0.1929461507E-05   0.0000000000E+00   0.0000000000E+00   0.1863294218E-01   0.7243194050E-03   0.0000000000E+00  -0.3387611479E-02
   0.2340789023E+00   0.1114859904E+00   0.7719127612E-04  -0.2813560907E-05   0.0000000000E+00   0.0000000000E+00   0.2058404993E-01   0.3486039116E-03   0.0000000000E+00  -0.3092717556E-02
   0.2724741309E+00   0.5526171902E-01   0.8832492172E-04  -0.3287785553E-06   0.0000000000E+00   0.0000000000E+00   0.1561255651E-01   0.3205525603E-02   0.0000000000E+00  -0.1707573632E-02
   0.2715648190E+00   0.4597708295E-01   0.8860996492E-04  -0.2114519467E-06   0.0000000000E+00   0.0000000000E+00   0.1501211213E-01   0.3390123022E-02   0.0000000000E+00  -0.1496760300E-02
   0.2911813354E+00   0.4614135977E-01   0.9138338831E-04  -0.1715270847E-06   0.0000000000E+00   0.0000000000E+00   0.1544982838E-01   0.3684536911E-02   0.0000000000E+00  -0.1081307517E-02
   0.2821525430E+00   0.5538363690E-01   0.8974400680E-04  -0.2986958172E-06   0.0000000000E+00   0.0000000000E+00   0.1579922726E-01   0.3370224159E-02   0.0000000000E+00  -0.1465822145E-02
   0.2733213358E+00   0.6461728321E-01   0.8798178100E-04  -0.4846871309E-06   0.0000000000E+00   0.0000000000E+00   0.1627035837E-01   0.2954565776E-02   0.0000000000E+00  -0.1836806849E-02
   0.1569426077E+00   0.5349216037E-01   0.7298771035E-04  -0.2121726451E-05   0.0000000000E+00   0.0000000000E+00   0.1138427178E-01  -0.2755165779E-02   0.0000000000E+00  -0.5947213933E-02
   0.1468240394E+00   0.6075362386E-01   0.7004235957E-04  -0.3249442044E-05   0.0000000000E+00   0.0000000000E+00   0.1276463078E-01  -0.4107420724E-02   0.0000000000E+00  -0.6586316054E-02
   0.1518833854E+00   0.5712293496E-01   0.7157735450E-04  -0.2640843486E-05   0.0000000000E+00   0.0000000000E+00   0.1200110163E-01  -0.3427766642E-02   0.0000000000E+00  -0.6288393306E-02
   0.1411247101E+00   0.5332469751E-01   0.7112307536E-04  -0.3108790461E-05   0.0000000000E+00   0.0000000000E+00   0.1056025911E-01  -0.4471452198E-02   0.0000000000E+00  -0.6338326430E-02
   0.1547768757E+00   0.4650318590E-01   0.7412265238E-04  -0.1814499490E-05   0.0000000000E+00   0.0000000000E+00   0.9620261395E-02  -0.2708613844E-02   0.0000000000E+00  -0.5600494719E-02
   0.1618885337E+00   0.3919779271E-01   0.7607973596E-04  -0.1179594194E-05   0.0000000000E+00   0.0000000000E+00   0.8628613901E-02  -0.1619618569E-02   0.0000000000E+00  -0.4819838530E-02
   0.7016288150E-01   0.1373044817E+00   0.2694540074E-04  -0.2721231147E-04   0.0000000000E+00   0.0000000000E+00   0.3580175090E-01  -0.5348262895E-03   0.0000000000E+00   0.1796863222E-02
   0.1239080957E+00   0.1490876467E+00   0.4284168023E-04  -0.1700832133E-04   0.0000000000E+00   0.0000000000E+00   0.3035390652E-01  -0.4075841979E-02   0.0000000000E+00   0.2497370774E-03
   0.1446490988E+00   0.1473456887E+00   0.4951178746E-04  -0.1333930233E-04   0.0000000000E+00   0.0000000000E+00   0.2864561297E-01  -0.3899942282E-02   0.0000000000E+00  -0.9478919135E-03
   0.1432109310E+00   0.1661172583E+00   0.4604297085E-04  -0.1584772722E-04   0.0000000000E+00   0.0000000000E+00   0.2945837733E-01  -0.3027241104E-02   0.0000000000E+00   0.3581703735E-03
   0.1255250869E+00   0.1662941569E+00   0.4056093412E-04  -0.1889512609E-04   0.0000000000E+00   0.0000000000E+00   0.3040229231E-01  -0.3077499484E-02   0.0000000000E+00   0.1327571738E-02
   0.1342786397E+00   0.1482167471E+00   0.4622273739E-04  -0.1508685446E-04   0.0000000000E+00   0.0000000000E+00   0.2946888864E-01  -0.4065550382E-02   0.0000000000E+00  -0.3788788726E-03
   0.1439299666E+00   0.1567314531E+00   0.4772162751E-04  -0.1460686820E-04   0.0000000000E+00   0.0000000000E+00   0.2910778134E-01  -0.3444425868E-02   0.0000000000E+00  -0.2760630905E-03
   0.1343680226E+00   0.1662057600E+00   0.4332263023E-04  -0.1731895037E-04   0.0000000000E+00   0.0000000000E+00   0.2992537911E-01  -0.3110402619E-02   0.0000000000E+00   0.8182132514E-03
   0.1247165284E+00   0.1576908799E+00   0.4164244240E-04  -0.1797306053E-04   0.0000000000E+00   0.0000000000E+00   0.3045648484E-01  -0.3547214737E-02   0.0000000000E+00   0.8151885463E-03
   0.6670541898E-01   0.1808534905E+00   0.2011497697E-04  -0.3233153167E-04   0.0000000000E+00   0.0000000000E+00   0.3116896463E-01   0.3808584020E-03   0.0000000000E+00   0.3986447136E-02
   0.5931791537E-01   0.1820933257E+00   0.1772736655E-04  -0.3382234795E-04   0.0000000000E+00   0.0000000000E+00   0.3101069295E-01   0.9996215554E-03   0.0000000000E+00   0.3884624819E-02
   0.6014725470E-01   0.1676340180E+00   0.1926249737E-04  -0.3243198363E-04   0.0000000000E+00   0.0000000000E+00   0.3286707315E-01   0.1079391357E-02   0.0000000000E+00   0.3810880372E-02
   0.6828173975E-01   0.1737819683E+00   0.2127864994E-04  -0.3137472450E-04   0.0000000000E+00   0.0000000000E+00   0.3200528080E-01   0.2502476452E-03   0.0000000000E+00   0.3932709406E-02
   0.1095793054E+00   0.1660981896E+00   0.3553435768E-04  -0.2193744360E-04   0.0000000000E+00   0.0000000000E+00   0.3124561020E-01  -0.2775528121E-02   0.0000000000E+00   0.2218417941E-02
   0.1054637846E+00   0.1805701013E+00   0.3228756177E-04  -0.2444774426E-04   0.0000000000E+00   0.0000000000E+00   0.3078706920E-01  -0.1845185683E-02   0.0000000000E+00   0.2954788557E-02
   0.1075215072E+00   0.1733341271E+00   0.3387315996E-04  -0.2321091159E-04   0.0000000000E+00   0.0000000000E+00   0.3107677001E-01  -0.2291252849E-02   0.0000000000E+00   0.2596995443E-02
   0.9633526397E-01   0.1780131704E+00   0.2972976548E-04  -0.2602256195E-04   0.0000000000E+00   0.0000000000E+00   0.3111450485E-01  -0.1661572512E-02   0.0000000000E+00   0.3275667521E-02
   0.1019381191E+00   0.1635570154E+00   0.3343611204E-04  -0.2319364914E-04   0.0000000000E+00   0.0000000000E+00   0.3169059087E-01  -0.2598521689E-02   0.0000000000E+00   0.2476635973E-02
   0.2147667813E+00   0.1816740353E+00   0.6457728680E-04  -0.9236687281E-05   0.0000000000E+00   0.0000000000E+00   0.2745064491E-01  -0.7156624584E-03   0.0000000000E+00  -0.1285180213E-02
   0.2339765018E+00   0.1798126456E+00   0.7000876475E-04  -0.7802402569E-05   0.0000000000E+00   0.0000000000E+00   0.2682781052E-01  -0.3054387639E-03   0.0000000000E+00  -0.1472911788E-02
   0.2151944590E+00   0.1900278033E+00   0.6380201795E-04  -0.9953673710E-05   0.0000000000E+00   0.0000000000E+00   0.2804023471E-01  -0.5924918036E-03   0.0000000000E+00  -0.1080105628E-02
   0.2243716620E+00   0.1807433857E+00   0.6731398038E-04  -0.8474267494E-05   0.0000000000E+00   0.0000000000E+00   0.2713992190E-01  -0.5014157016E-03   0.0000000000E+00  -0.1385838705E-02
   0.2344554162E+00   0.1884289914E+00   0.6933023302E-04  -0.8500592716E-05   0.0000000000E+00   0.0000000000E+00   0.2748114489E-01  -0.2586300358E-03   0.0000000000E+00  -0.1281638361E-02
   0.3018078369E+00   0.1735286062E+00   0.8799287869E-04  -0.5011758687E-05   0.0000000000E+00   0.0000000000E+00   0.2526555158E-01   0.7273478942E-03   0.0000000000E+00  -0.9517319706E-03
   0.2753097428E+00   0.1305025778E+00   0.8416278810E-04  -0.2865207804E-05   0.0000000000E+00   0.0000000000E+00   0.2188890509E-01   0.1192724504E-02   0.0000000000E+00  -0.1895518348E-02
   0.2841811086E+00   0.1316246408E+00   0.8599955799E-04  -0.2770207181E-05   0.0000000000E+00   0.0000000000E+00   0.2191918018E-01   0.1353603638E-02   0.0000000000E+00  -0.1676194111E-02
   0.2756496108E+00   0.1209376303E+00   0.8488081833E-04  -0.2369673734E-05   0.0000000000E+00   0.0000000000E+00   0.2103266183E-01   0.1439388319E-02   0.0000000000E+00  -0.1955509561E-02
   0.2704020714E+00   0.1522820375E+00   0.8153637541E-04  -0.4268544682E-05   0.0000000000E+00   0.0000000000E+00   0.2386090250E-01   0.6733570065E-03   0.0000000000E+00  -0.1729204888E-02
   0.2810769445E+00   0.1527861865E+00   0.8401945982E-04  -0.4046544882E-05   0.0000000000E+00   0.0000000000E+00   0.2376953905E-01   0.8471878264E-03   0.0000000000E+00  -0.1531754080E-02
   0.2728559275E+00   0.1413923347E+00   0.8287045149E-04  -0.3532335395E-05   0.0000000000E+00   0.0000000000E+00   0.2287247934E-01   0.9224535736E-03   0.0000000000E+00  -0.1818126664E-02
   0.2627984985E+00   0.5529439142E-01   0.8691349180E-04  -0.3681781210E-06   0.0000000000E+00   0.0000000000E+00   0.1539477657E-01   0.2999135728E-02   0.0000000000E+00  -0.1960657759E-02
   0.2533688787E+00   0.1774803026E+00   0.7536466225E-04  -0.6653411476E-05   0.0000000000E+00   0.0000000000E+00   0.2622857414E-01   0.6934678213E-04   0.0000000000E+00  -0.1497530915E-02
   0.2538320041E+00   0.1865736911E+00   0.7476614616E-04  -0.7353941983E-05   0.0000000000E+00   0.0000000000E+00   0.2694666117E-01   0.4478070651E-04   0.0000000000E+00  -0.1321113465E-02
   0.2436727191E+00   0.1786465128E+00   0.7270813218E-04  -0.7189225212E-05   0.0000000000E+00   0.0000000000E+00   0.2652948772E-01  -0.1114673524E-03   0.0000000000E+00  -0.1491005653E-02
   0.2918901419E+00   0.1634571287E+00   0.8600691357E-04  -0.4511253920E-05   0.0000000000E+00   0.0000000000E+00   0.2453537919E-01   0.8184525334E-03   0.0000000000E+00  -0.1221418947E-02
   0.1870484161E+00   0.1997005270E+00   0.5457907394E-04  -0.1350803689E-04   0.0000000000E+00   0.0000000000E+00   0.2928597098E-01  -0.8781161027E-03   0.0000000000E+00  -0.2629288054E-03
   0.1841472487E+00   0.5941447149E-01   0.7546973054E-04  -0.1446308551E-05   0.0000000000E+00   0.0000000000E+00   0.1354826474E-01  -0.6528260122E-03   0.0000000000E+00  -0.4984722168E-02
   0.1724885017E+00   0.4977064450E-01   0.7550966275E-04  -0.1327501118E-05   0.0000000000E+00   0.0000000000E+00   0.1135208737E-01  -0.1140088140E-02   0.0000000000E+00  -0.5048678621E-02
   0.1221276723E+00   0.5812195869E-01   0.6741826523E-04  -0.5642008709E-05   0.0000000000E+00   0.0000000000E+00   0.1088843108E-01  -0.6759276000E-02   0.0000000000E+00  -0.6615529479E-02
   0.1101014901E+00   0.7309416679E-01   0.6025206470E-04  -0.9395206783E-05   0.0000000000E+00   0.0000000000E+00   0.1699416638E-01  -0.6494874820E-02   0.0000000000E+00  -0.6828218411E-02
   0.1161147825E+00   0.6560818022E-01   0.6403246133E-04  -0.7399278181E-05   0.0000000000E+00   0.0000000000E+00   0.1362945014E-01  -0.6730001404E-02   0.0000000000E+00  -0.6758433954E-02
   0.1031371063E+00   0.6831241698E-01   0.6093930341E-04  -0.1046512348E-04   0.0000000000E+00   0.0000000000E+00   0.1416720499E-01  -0.5756741679E-02   0.0000000000E+00  -0.6227628540E-02
   0.1151220979E+00   0.5210686232E-01   0.6854094216E-04  -0.6208779667E-05   0.0000000000E+00   0.0000000000E+00   0.8249906787E-02  -0.7398158622E-02   0.0000000000E+00  -0.5440990101E-02
   0.2638651029E+00   0.1949662073E+00   0.7687990350E-04  -0.7618675417E-05   0.0000000000E+00   0.0000000000E+00   0.2742867451E-01   0.1211436602E-03   0.0000000000E+00  -0.1122726565E-02
   0.1475263607E+00   0.8123017458E-01   0.6499066437E-04  -0.5040521156E-05   0.0000000000E+00   0.0000000000E+00   0.1833265502E-01  -0.4621099101E-02   0.0000000000E+00  -0.6340465544E-02
   0.1352986772E+00   0.7050275576E-01   0.6564723802E-04  -0.5187839765E-05   0.0000000000E+00   0.0000000000E+00   0.1559762953E-01  -0.5490938442E-02   0.0000000000E+00  -0.6904903237E-02
   0.1532307660E+00   0.6672299278E-01   0.6956798472E-04  -0.3274522727E-05   0.0000000000E+00   0.0000000000E+00   0.1449993836E-01  -0.3609212692E-02   0.0000000000E+00  -0.6410700370E-02
   0.1535820872E+00   0.7696131300E-01   0.6719523955E-04  -0.4123301330E-05   0.0000000000E+00   0.0000000000E+00   0.1703290756E-01  -0.4011661069E-02   0.0000000000E+00  -0.6285195251E-02
   0.1414124360E+00   0.7586649426E-01   0.6523601133E-04  -0.5085039500E-05   0.0000000000E+00   0.0000000000E+00   0.1710482290E-01  -0.4931927600E-02   0.0000000000E+00  -0.6644776475E-02
   0.1410614515E+00   0.6562827036E-01   0.6794547219E-04  -0.4139942097E-05   0.0000000000E+00   0.0000000000E+00   0.1407231840E-01  -0.4848650533E-02   0.0000000000E+00  -0.6778559399E-02
   0.1010108255E+00   0.1969396103E+00   0.2896452355E-04  -0.2706767251E-04   0.0000000000E+00   0.0000000000E+00   0.2995682531E-01  -0.1049687828E-02   0.0000000000E+00   0.3273270319E-02
   0.9993802415E-01   0.2055599025E+00   0.2765314638E-04  -0.2812548644E-04   0.0000000000E+00   0.0000000000E+00   0.2946403388E-01  -0.7504985613E-03   0.0000000000E+00   0.3102817200E-02
   0.1109669017E+00   0.1977777901E+00   0.3188472183E-04  -0.2520089650E-04   0.0000000000E+00   0.0000000000E+00   0.2996740539E-01  -0.1264926483E-02   0.0000000000E+00   0.2820743293E-02
   0.8261273574E-01   0.1844295982E+00   0.2470383629E-04  -0.2950680734E-04   0.0000000000E+00   0.0000000000E+00   0.3081616263E-01  -0.6387126674E-03   0.0000000000E+00   0.3772180092E-02
   0.7236218968E-01   0.1871283008E+00   0.2128397679E-04  -0.3180418755E-04   0.0000000000E+00   0.0000000000E+00   0.3052082910E-01  -0.2077200222E-04   0.0000000000E+00   0.3948380167E-02
   0.8951486360E-01   0.1951713554E+00   0.2568669675E-04  -0.2917761487E-04   0.0000000000E+00   0.0000000000E+00   0.2993430331E-01  -0.7290139913E-03   0.0000000000E+00   0.3583186936E-02
   0.1287767635E+00   0.5200897515E-01   0.7004050260E-04  -0.4194845535E-05   0.0000000000E+00   0.0000000000E+00   0.9128263462E-02  -0.6124545470E-02   0.0000000000E+00  -0.6427636897E-02
   0.2664085364E+00   0.9249791307E-01   0.8508940534E-04  -0.1298332902E-05   0.0000000000E+00   0.0000000000E+00   0.1851053858E-01   0.1989988957E-02   0.0000000000E+00  -0.2307946111E-02
   0.2673364854E+00   0.1108282101E+00   0.8392144403E-04  -0.2029908288E-05   0.0000000000E+00   0.0000000000E+00   0.2018078989E-01   0.1493845627E-02   0.0000000000E+00  -0.2244334860E-02
   0.2647348185E+00   0.7390494624E-01   0.8608252412E-04  -0.7452638721E-06   0.0000000000E+00   0.0000000000E+00   0.1687818113E-01   0.2504982343E-02   0.0000000000E+00  -0.2231158207E-02
   0.2542120299E+00   0.6458208520E-01   0.8506391910E-04  -0.5979003333E-06   0.0000000000E+00   0.0000000000E+00   0.1592976076E-01   0.2499854528E-02   0.0000000000E+00  -0.2385830832E-02
   0.1235686850E+00   0.1823455296E+00   0.3770104556E-04  -0.2113942906E-04   0.0000000000E+00   0.0000000000E+00   0.3031687089E-01  -0.2175299551E-02   0.0000000000E+00   0.2083653983E-02
   0.1325285747E+00   0.1827212742E+00   0.4041374955E-04  -0.1956276586E-04   0.0000000000E+00   0.0000000000E+00   0.3004423182E-01  -0.2219328067E-02   0.0000000000E+00   0.1601481956E-02
   0.1222458158E+00   0.1904806873E+00   0.3623679859E-04  -0.2228366963E-04   0.0000000000E+00   0.0000000000E+00   0.3017799185E-01  -0.1747305168E-02   0.0000000000E+00   0.2263356527E-02
   0.1611622324E+00   0.1679403646E+00   0.5113042116E-04  -0.1342440688E-04   0.0000000000E+00   0.0000000000E+00   0.2857200556E-01  -0.2572436009E-02   0.0000000000E+00  -0.3845212508E-03
   0.1782015723E+00   0.1698375760E+00   0.5579133362E-04  -0.1152197895E-04   0.0000000000E+00   0.0000000000E+00   0.2790973367E-01  -0.1987537454E-02   0.0000000000E+00  -0.9097595451E-03
   0.1604460677E+00   0.1759180061E+00   0.4978967485E-04  -0.1440086520E-04   0.0000000000E+00   0.0000000000E+00   0.2894755217E-01  -0.2224597364E-02   0.0000000000E+00  -0.1668449482E-04
   0.1696819185E+00   0.1688890146E+00   0.5347749200E-04  -0.1242835681E-04   0.0000000000E+00   0.0000000000E+00   0.2823688181E-01  -0.2282548924E-02   0.0000000000E+00  -0.6605955808E-03
   0.1780336729E+00   0.1772059287E+00   0.5475490232E-04  -0.1230031335E-04   0.0000000000E+00   0.0000000000E+00   0.2832823107E-01  -0.1747638779E-02   0.0000000000E+00  -0.6220924457E-03
   0.8809104539E-01   0.1398081583E+00   0.3275998956E-04  -0.2325067829E-04   0.0000000000E+00   0.0000000000E+00   0.3357178135E-01  -0.2874267108E-02   0.0000000000E+00   0.1365406016E-02
   0.8064973585E-01   0.1351873125E+00   0.3110845394E-04  -0.2442351117E-04   0.0000000000E+00   0.0000000000E+00   0.3466999980E-01  -0.2184490431E-02   0.0000000000E+00   0.1183706468E-02
   0.8421240954E-01   0.1462882900E+00   0.3022903999E-04  -0.2495998086E-04   0.0000000000E+00   0.0000000000E+00   0.3373493639E-01  -0.2064261061E-02   0.0000000000E+00   0.2165987395E-02
   0.9944083341E-01   0.8895201414E-01   0.5164541444E-04  -0.1369235704E-04   0.0000000000E+00   0.0000000000E+00   0.2451892939E-01  -0.5318720920E-02   0.0000000000E+00  -0.6082829804E-02
   0.9169276252E-01   0.8430016619E-01   0.5169401837E-04  -0.1517100621E-04   0.0000000000E+00   0.0000000000E+00   0.2242626730E-01  -0.3653665923E-02   0.0000000000E+00  -0.6671944368E-02
   0.1047712782E+00   0.8102316264E-01   0.5606519381E-04  -0.1146785623E-04   0.0000000000E+00   0.0000000000E+00   0.2048645360E-01  -0.5912227586E-02   0.0000000000E+00  -0.6504048624E-02
   0.2629760089E+00   0.1759905548E+00   0.7798087923E-04  -0.6166233679E-05   0.0000000000E+00   0.0000000000E+00   0.2595290217E-01   0.2369028260E-03   0.0000000000E+00  -0.1442552198E-02
   0.9641464713E-01   0.1276330302E+00   0.3827273190E-04  -0.1968979056E-04   0.0000000000E+00   0.0000000000E+00   0.3257543949E-01  -0.4218995926E-02   0.0000000000E+00  -0.4902512578E-03
   0.8861373022E-01   0.1224435859E+00   0.3693651517E-04  -0.2081812711E-04   0.0000000000E+00   0.0000000000E+00   0.3332142408E-01  -0.3686761182E-02   0.0000000000E+00  -0.9444473628E-03
   0.9225278269E-01   0.1337205816E+00   0.3545648509E-04  -0.2148237944E-04   0.0000000000E+00   0.0000000000E+00   0.3330385153E-01  -0.3450626231E-02   0.0000000000E+00   0.5137795778E-03
   0.2506117305E+00   0.1600905697E+00   0.7612345158E-04  -0.5450347421E-05   0.0000000000E+00   0.0000000000E+00   0.2485382729E-01   0.1411621409E-03   0.0000000000E+00  -0.1854859208E-02
   0.2605069451E+00   0.1561863505E+00   0.7887405182E-04  -0.4819493770E-05   0.0000000000E+00   0.0000000000E+00   0.2434438826E-01   0.4025797171E-03   0.0000000000E+00  -0.1805320837E-02
   0.2714925627E+00   0.1633914196E+00   0.8102465098E-04  -0.4983415467E-05   0.0000000000E+00   0.0000000000E+00   0.2477565339E-01   0.5307164208E-03   0.0000000000E+00  -0.1552209801E-02
   0.2519902859E+00   0.1687854453E+00   0.7572488917E-04  -0.6042707828E-05   0.0000000000E+00   0.0000000000E+00   0.2555971786E-01   0.1058198168E-03   0.0000000000E+00  -0.1669127366E-02
   0.2594342498E+00   0.1275321208E+00   0.8096982513E-04  -0.3043200158E-05   0.0000000000E+00   0.0000000000E+00   0.2178164246E-01   0.8722624240E-03   0.0000000000E+00  -0.2281252317E-02
   0.2673719900E+00   0.1290173580E+00   0.8256004168E-04  -0.2945022865E-05   0.0000000000E+00   0.0000000000E+00   0.2184388059E-01   0.1053318502E-02   0.0000000000E+00  -0.2083994083E-02
   0.2590589048E+00   0.1189079690E+00   0.8161079953E-04  -0.2581975791E-05   0.0000000000E+00   0.0000000000E+00   0.2098690342E-01   0.1067220917E-02   0.0000000000E+00  -0.2381665212E-02
   0.1962362178E+00   0.1840331975E+00   0.5910784237E-04  -0.1104449304E-04   0.0000000000E+00   0.0000000000E+00   0.2813677813E-01  -0.1106924496E-02   0.0000000000E+00  -0.8909254182E-03
   0.1870510269E+00   0.1843037950E+00   0.5644486516E-04  -0.1200595792E-04   0.0000000000E+00   0.0000000000E+00   0.2842251438E-01  -0.1313070330E-02   0.0000000000E+00  -0.6373044598E-03
   0.1964210874E+00   0.1917676417E+00   0.5824941254E-04  -0.1176334706E-04   0.0000000000E+00   0.0000000000E+00   0.2861461218E-01  -0.9246061939E-03   0.0000000000E+00  -0.6968895789E-03
   0.2583641050E+00   0.1415007934E+00   0.7956595077E-04  -0.3911643524E-05   0.0000000000E+00   0.0000000000E+00   0.2309518013E-01   0.5799754617E-03   0.0000000000E+00  -0.2085571885E-02
   0.2460241395E+00   0.1446380637E+00   0.7642049832E-04  -0.4527325570E-05   0.0000000000E+00   0.0000000000E+00   0.2359726606E-01   0.1734656294E-03   0.0000000000E+00  -0.2224853814E-02
   0.2643830742E+00   0.1468914133E+00   0.8052219028E-04  -0.4084736960E-05   0.0000000000E+00   0.0000000000E+00   0.2347113303E-01   0.6315797054E-03   0.0000000000E+00  -0.1906840568E-02
   0.2483179128E+00   0.1523643224E+00   0.7624979339E-04  -0.4982553972E-05   0.0000000000E+00   0.0000000000E+00   0.2424760764E-01   0.1610138970E-03   0.0000000000E+00  -0.2032003026E-02
   0.2521941511E+00   0.1430694424E+00   0.7800713997E-04  -0.4205573297E-05   0.0000000000E+00   0.0000000000E+00   0.2334241961E-01   0.3875795228E-03   0.0000000000E+00  -0.2153998048E-02
   0.2055015213E+00   0.1828536662E+00   0.6186428068E-04  -0.1009083794E-04   0.0000000000E+00   0.0000000000E+00   0.2779377713E-01  -0.9089381078E-03   0.0000000000E+00  -0.1097504748E-02
   0.1145162461E+00   0.1814578573E+00   0.3500510454E-04  -0.2275872444E-04   0.0000000000E+00   0.0000000000E+00   0.3053872315E-01  -0.2093381415E-02   0.0000000000E+00   0.2497174216E-02
   0.1032372789E+00   0.1887548262E+00   0.3059991802E-04  -0.2577981593E-04   0.0000000000E+00   0.0000000000E+00   0.3044277251E-01  -0.1434623151E-02   0.0000000000E+00   0.3136793958E-02
   0.1917367328E+00   0.1589805151E+00   0.6103981450E-04  -0.9048897305E-05   0.0000000000E+00   0.0000000000E+00   0.2660579082E-01  -0.1767337964E-02   0.0000000000E+00  -0.1716032805E-02
   0.1945660885E+00   0.1697802694E+00   0.6039645897E-04  -0.9834581053E-05   0.0000000000E+00   0.0000000000E+00   0.2726728799E-01  -0.1443369487E-02   0.0000000000E+00  -0.1321828175E-02
   0.1798302625E+00   0.1552862375E+00   0.5830246765E-04  -0.9834527098E-05   0.0000000000E+00   0.0000000000E+00   0.2690386449E-01  -0.2346822144E-02   0.0000000000E+00  -0.1640412025E-02
   0.1931513964E+00   0.1643803888E+00   0.6070437282E-04  -0.9445188003E-05   0.0000000000E+00   0.0000000000E+00   0.2694556910E-01  -0.1616835603E-02   0.0000000000E+00  -0.1520826324E-02
   0.1863838397E+00   0.1698089549E+00   0.5811066095E-04  -0.1063809303E-04   0.0000000000E+00   0.0000000000E+00   0.2758203732E-01  -0.1727395069E-02   0.0000000000E+00  -0.1128577634E-02
   0.1790158946E+00   0.1625619147E+00   0.5703155945E-04  -0.1067729649E-04   0.0000000000E+00   0.0000000000E+00   0.2743173308E-01  -0.2158556134E-02   0.0000000000E+00  -0.1265340555E-02
   0.1857835003E+00   0.1571333922E+00   0.5967431936E-04  -0.9425806496E-05   0.0000000000E+00   0.0000000000E+00   0.2674045811E-01  -0.2036072703E-02   0.0000000000E+00  -0.1676895850E-02
   0.2034196481E+00   0.1667315831E+00   0.6320307398E-04  -0.8774936994E-05   0.0000000000E+00   0.0000000000E+00   0.2671325651E-01  -0.1238300935E-02   0.0000000000E+00  -0.1586185713E-02
   0.2135199428E+00   0.1726784067E+00   0.6523478228E-04  -0.8527252898E-05   0.0000000000E+00   0.0000000000E+00   0.2683171274E-01  -0.8347544012E-03   0.0000000000E+00  -0.1524734046E-02
   0.1954011445E+00   0.1769067238E+00   0.5973646465E-04  -0.1044215132E-04   0.0000000000E+00   0.0000000000E+00   0.2770566062E-01  -0.1281152175E-02   0.0000000000E+00  -0.1101210697E-02
   0.2385258868E+00   0.1456842463E+00   0.7453983150E-04  -0.4898723973E-05   0.0000000000E+00   0.0000000000E+00   0.2387189428E-01  -0.7380969288E-04   0.0000000000E+00  -0.2278341620E-02
   0.2414160523E+00   0.1615946344E+00   0.7368627507E-04  -0.5955638462E-05   0.0000000000E+00   0.0000000000E+00   0.2518928652E-01  -0.1057965018E-03   0.0000000000E+00  -0.1874108798E-02
   0.1010154695E+00   0.1485459958E+00   0.3551546271E-04  -0.2150219669E-04   0.0000000000E+00   0.0000000000E+00   0.3226372081E-01  -0.3410903671E-02   0.0000000000E+00   0.1505902011E-02
   0.9765613364E-01   0.1547808815E+00   0.3335913597E-04  -0.2302052174E-04   0.0000000000E+00   0.0000000000E+00   0.3233536803E-01  -0.2797636010E-02   0.0000000000E+00   0.2156577912E-02
   0.9455325892E-01   0.1441771154E+00   0.3413552383E-04  -0.2234556855E-04   0.0000000000E+00   0.0000000000E+00   0.3285955282E-01  -0.3205983964E-02   0.0000000000E+00   0.1481961370E-02
   0.1521866036E+00   0.1670288640E+00   0.4860856681E-04  -0.1458297283E-04   0.0000000000E+00   0.0000000000E+00   0.2900687638E-01  -0.2815591177E-02   0.0000000000E+00  -0.2976239878E-04
   0.1423496476E+00   0.1746070790E+00   0.4454162601E-04  -0.1697702855E-04   0.0000000000E+00   0.0000000000E+00   0.2966860874E-01  -0.2580410987E-02   0.0000000000E+00   0.7768149026E-03
   0.1653766238E+00   0.5707604534E-01   0.7334877837E-04  -0.1954863542E-05   0.0000000000E+00   0.0000000000E+00   0.1247215846E-01  -0.2081429481E-02   0.0000000000E+00  -0.5739111832E-02
   0.1287130572E+00   0.6431242132E-01   0.6641517635E-04  -0.5348980157E-05   0.0000000000E+00   0.0000000000E+00   0.1362311386E-01  -0.5779847302E-02   0.0000000000E+00  -0.6852266357E-02
   0.2004593181E+00   0.7797857453E-01   0.7516309526E-04  -0.1928868369E-05   0.0000000000E+00   0.0000000000E+00   0.1667719028E-01  -0.3551971133E-03   0.0000000000E+00  -0.4537956075E-02
   0.1974715002E+00   0.6807380401E-01   0.7611619442E-04  -0.1510191684E-05   0.0000000000E+00   0.0000000000E+00   0.1524066027E-01  -0.1044305728E-03   0.0000000000E+00  -0.4531833086E-02
   0.1923252718E+00   0.8015758801E-01   0.7344076814E-04  -0.2314586376E-05   0.0000000000E+00   0.0000000000E+00   0.1709518630E-01  -0.9834566790E-03   0.0000000000E+00  -0.4828373030E-02
   0.2093545959E+00   0.7675696783E-01   0.7681694528E-04  -0.1632972019E-05   0.0000000000E+00   0.0000000000E+00   0.1658823394E-01   0.2227962168E-03   0.0000000000E+00  -0.4167275005E-02
   0.2203857688E+00   0.8485887742E-01   0.7767375248E-04  -0.1760382150E-05   0.0000000000E+00   0.0000000000E+00   0.1764738712E-01   0.5304348655E-03   0.0000000000E+00  -0.3749019181E-02
   0.2114213102E+00   0.1146669071E+00   0.7203118770E-04  -0.3860865946E-05   0.0000000000E+00   0.0000000000E+00   0.2142913397E-01  -0.8072969013E-03   0.0000000000E+00  -0.3531938391E-02
   0.2066511722E+00   0.9689255509E-01   0.7354323274E-04  -0.2841606170E-05   0.0000000000E+00   0.0000000000E+00   0.1930949309E-01  -0.6411075394E-03   0.0000000000E+00  -0.4110147327E-02
   0.2188223595E+00   0.1134823935E+00   0.7377552599E-04  -0.3464515826E-05   0.0000000000E+00   0.0000000000E+00   0.2111220597E-01  -0.4003664113E-03   0.0000000000E+00  -0.3403181417E-02
   0.2090362134E+00   0.1057797449E+00   0.7275944782E-04  -0.3338131168E-05   0.0000000000E+00   0.0000000000E+00   0.2043330776E-01  -0.7092428468E-03   0.0000000000E+00  -0.3818243400E-02
   0.2145864774E+00   0.9553750175E-01   0.7526137244E-04  -0.2485347512E-05   0.0000000000E+00   0.0000000000E+00   0.1903433180E-01  -0.1538109558E-03   0.0000000000E+00  -0.3880511821E-02
   0.8996540011E-01   0.1039805688E+00   0.4317311027E-04  -0.1798817557E-04   0.0000000000E+00   0.0000000000E+00   0.3075631085E-01  -0.4070623206E-02   0.0000000000E+00  -0.4054387861E-02
   0.9470311390E-01   0.9646632149E-01   0.4740640219E-04  -0.1580640577E-04   0.0000000000E+00   0.0000000000E+00   0.2758407061E-01  -0.4661394604E-02   0.0000000000E+00  -0.5069808051E-02
   0.8096833899E-01   0.9905003342E-01   0.4226338866E-04  -0.1980037601E-04   0.0000000000E+00   0.0000000000E+00   0.3044943453E-01  -0.2301737023E-02   0.0000000000E+00  -0.5483058274E-02
   0.1245353974E+00   0.8337914705E-01   0.5959740643E-04  -0.8041554406E-05   0.0000000000E+00   0.0000000000E+00   0.2027584697E-01  -0.6238263308E-02   0.0000000000E+00  -0.6531237155E-02
   0.1299171458E+00   0.7694104461E-01   0.6273481845E-04  -0.6525188877E-05   0.0000000000E+00   0.0000000000E+00   0.1777884543E-01  -0.5948581663E-02   0.0000000000E+00  -0.6788618050E-02
   0.1173183008E+00   0.7823676673E-01   0.5978179183E-04  -0.8604871238E-05   0.0000000000E+00   0.0000000000E+00   0.1873132628E-01  -0.6226604486E-02   0.0000000000E+00  -0.6720129727E-02
   0.8538909971E-01   0.1106172801E+00   0.3937601107E-04  -0.2004185470E-04   0.0000000000E+00   0.0000000000E+00   0.3277486459E-01  -0.3183997572E-02   0.0000000000E+00  -0.2724201525E-02
   0.1087998568E+00   0.1151764357E+00   0.4555677745E-04  -0.1521033871E-04   0.0000000000E+00   0.0000000000E+00   0.2977226221E-01  -0.5576376522E-02   0.0000000000E+00  -0.2755081813E-02
   0.9938251753E-01   0.1095786395E+00   0.4425423202E-04  -0.1646550344E-04   0.0000000000E+00   0.0000000000E+00   0.2992276115E-01  -0.5150269774E-02   0.0000000000E+00  -0.3315663877E-02
   0.1026072309E+00   0.1214047623E+00   0.4189793101E-04  -0.1742369335E-04   0.0000000000E+00   0.0000000000E+00   0.3121208174E-01  -0.4883262120E-02   0.0000000000E+00  -0.1585865494E-02
   0.2330983883E+00   0.1714556436E+00   0.7058730514E-04  -0.7160399166E-05   0.0000000000E+00   0.0000000000E+00   0.2619305445E-01  -0.3301911063E-03   0.0000000000E+00  -0.1671346382E-02
   0.2438939995E+00   0.1279861885E+00   0.7754954267E-04  -0.3505529890E-05   0.0000000000E+00   0.0000000000E+00   0.2207677212E-01   0.3706012375E-03   0.0000000000E+00  -0.2592739066E-02
   0.2516641275E+00   0.1277591779E+00   0.7926950287E-04  -0.3259146319E-05   0.0000000000E+00   0.0000000000E+00   0.2193458515E-01   0.6321096321E-03   0.0000000000E+00  -0.2437326568E-02
   0.2429142014E+00   0.1193301667E+00   0.7820242868E-04  -0.3011329953E-05   0.0000000000E+00   0.0000000000E+00   0.2124248640E-01   0.5300644795E-03   0.0000000000E+00  -0.2751936981E-02
   0.1989489935E+00   0.1517338506E+00   0.6394052453E-04  -0.7743409944E-05   0.0000000000E+00   0.0000000000E+00   0.2573012326E-01  -0.1572766345E-02   0.0000000000E+00  -0.2113334115E-02
   0.2054364609E+00   0.1444291725E+00   0.6658588289E-04  -0.6605455481E-05   0.0000000000E+00   0.0000000000E+00   0.2480826464E-01  -0.1326792372E-02   0.0000000000E+00  -0.2480458592E-02
   0.2056110539E+00   0.1577083176E+00   0.6491285820E-04  -0.7777406956E-05   0.0000000000E+00   0.0000000000E+00   0.2593670666E-01  -0.1245393135E-02   0.0000000000E+00  -0.1950275144E-02
   0.2021927297E+00   0.1480815324E+00   0.6527267028E-04  -0.7161648027E-05   0.0000000000E+00   0.0000000000E+00   0.2524033110E-01  -0.1476423634E-02   0.0000000000E+00  -0.2322445341E-02
   0.2109069893E+00   0.1455961803E+00   0.6780733213E-04  -0.6343673090E-05   0.0000000000E+00   0.0000000000E+00   0.2470895988E-01  -0.1115816838E-02   0.0000000000E+00  -0.2431066518E-02
   0.1245468518E+00   0.1743198259E+00   0.3909676347E-04  -0.2003509424E-04   0.0000000000E+00   0.0000000000E+00   0.3040562696E-01  -0.2610520118E-02   0.0000000000E+00   0.1717455985E-02
   0.1924627179E+00   0.1008168775E+00   0.7008586370E-04  -0.3738493866E-05   0.0000000000E+00   0.0000000000E+00   0.2024089364E-01  -0.1632819564E-02   0.0000000000E+00  -0.4396040483E-02
   0.2035552264E+00   0.8743558409E-01   0.7432738874E-04  -0.2366011451E-05   0.0000000000E+00   0.0000000000E+00   0.1807549486E-01  -0.4807529257E-03   0.0000000000E+00  -0.4327900891E-02
   0.1995569692E+00   0.9885474646E-01   0.7184617816E-04  -0.3259838374E-05   0.0000000000E+00   0.0000000000E+00   0.1976839438E-01  -0.1135096064E-02   0.0000000000E+00  -0.4258673707E-02
   0.1883268593E+00   0.9157671231E-01   0.7080433214E-04  -0.3246492199E-05   0.0000000000E+00   0.0000000000E+00   0.1897232185E-01  -0.1615396502E-02   0.0000000000E+00  -0.4766887493E-02
   0.1417454192E+00   0.1242028175E+00   0.5315316165E-04  -0.1081051820E-04   0.0000000000E+00   0.0000000000E+00   0.2695328655E-01  -0.4872216864E-02   0.0000000000E+00  -0.2921835928E-02
   0.1459237411E+00   0.1118805281E+00   0.5704908729E-04  -0.8699930789E-05   0.0000000000E+00   0.0000000000E+00   0.2487962085E-01  -0.4929869966E-02   0.0000000000E+00  -0.4161591415E-02
   0.1586599501E+00   0.1176609860E+00   0.5911307540E-04  -0.7933013330E-05   0.0000000000E+00   0.0000000000E+00   0.2461047879E-01  -0.4099794242E-02   0.0000000000E+00  -0.3802545153E-02
   0.1541496586E+00   0.1313673606E+00   0.5518564057E-04  -0.1006842214E-04   0.0000000000E+00   0.0000000000E+00   0.2662306136E-01  -0.4134748683E-02   0.0000000000E+00  -0.2607965228E-02
   0.1438345748E+00   0.1180416878E+00   0.5508878042E-04  -0.9737150213E-05   0.0000000000E+00   0.0000000000E+00   0.2593971975E-01  -0.4896819418E-02   0.0000000000E+00  -0.3535742697E-02
   0.1522918345E+00   0.1147707744E+00   0.5806952968E-04  -0.8295624184E-05   0.0000000000E+00   0.0000000000E+00   0.2471916887E-01  -0.4512122724E-02   0.0000000000E+00  -0.3963661671E-02
   0.1564048002E+00   0.1245141980E+00   0.5713820460E-04  -0.8980010712E-05   0.0000000000E+00   0.0000000000E+00   0.2565773105E-01  -0.4106287464E-02   0.0000000000E+00  -0.3196957363E-02
   0.1479475254E+00   0.1277851089E+00   0.5415637741E-04  -0.1042309396E-04   0.0000000000E+00   0.0000000000E+00   0.2676405128E-01  -0.4495365068E-02   0.0000000000E+00  -0.2732900425E-02
   0.1175522110E+00   0.1661962025E+00   0.3806299723E-04  -0.2037954519E-04   0.0000000000E+00   0.0000000000E+00   0.3080854255E-01  -0.2984535859E-02   0.0000000000E+00   0.1757821024E-02
   0.1638195446E+00   0.1519683551E+00   0.5432255758E-04  -0.1128486377E-04   0.0000000000E+00   0.0000000000E+00   0.2753826489E-01  -0.3091984924E-02   0.0000000000E+00  -0.1393337592E-02
   0.1542343439E+00   0.1496570779E+00   0.5193994693E-04  -0.1225610214E-04   0.0000000000E+00   0.0000000000E+00   0.2807040317E-01  -0.3519831393E-02   0.0000000000E+00  -0.1187439640E-02
   0.1624908555E+00   0.1599543528E+00   0.5270152667E-04  -0.1235423939E-04   0.0000000000E+00   0.0000000000E+00   0.2813965798E-01  -0.2806633796E-02   0.0000000000E+00  -0.8663404064E-03
   0.1114305338E+00   0.1549280810E+00   0.3784980941E-04  -0.2016800726E-04   0.0000000000E+00   0.0000000000E+00   0.3137383396E-01  -0.3473671434E-02   0.0000000000E+00   0.1414815259E-02
   0.1105048879E+00   0.1605131255E+00   0.3666392379E-04  -0.2106251955E-04   0.0000000000E+00   0.0000000000E+00   0.3132199609E-01  -0.3108732092E-02   0.0000000000E+00   0.1817958407E-02
   0.1176693197E+00   0.1520078821E+00   0.4035071975E-04  -0.1856287679E-04   0.0000000000E+00   0.0000000000E+00   0.3088613848E-01  -0.3820814927E-02   0.0000000000E+00   0.8163593310E-03
   0.1373086532E+00   0.1347310439E+00   0.4967622465E-04  -0.1284005650E-04   0.0000000000E+00   0.0000000000E+00   0.2841602634E-01  -0.4622466697E-02   0.0000000000E+00  -0.1703623328E-02
   0.1395270162E+00   0.1294669386E+00   0.5140221479E-04  -0.1181438987E-04   0.0000000000E+00   0.0000000000E+00   0.2772861980E-01  -0.4751798750E-02   0.0000000000E+00  -0.2285261592E-02
   0.1493993743E+00   0.1393565691E+00   0.5233734284E-04  -0.1166690171E-04   0.0000000000E+00   0.0000000000E+00   0.2769431065E-01  -0.4027656161E-02   0.0000000000E+00  -0.1783300188E-02
   0.1409788359E+00   0.1410383592E+00   0.4955391504E-04  -0.1309679094E-04   0.0000000000E+00   0.0000000000E+00   0.2853736942E-01  -0.4267441768E-02   0.0000000000E+00  -0.1336550663E-02
   0.2588991936E+00   0.1345164701E+00   0.8026963718E-04  -0.3464911240E-05   0.0000000000E+00   0.0000000000E+00   0.2245788935E-01   0.7206387772E-03   0.0000000000E+00  -0.2183128560E-02
   0.1805586484E+00   0.1056496886E+00   0.6669441300E-04  -0.4834404846E-05   0.0000000000E+00   0.0000000000E+00   0.2143814661E-01  -0.2543946316E-02   0.0000000000E+00  -0.4435060093E-02
   0.1865107076E+00   0.1032333131E+00   0.6842158286E-04  -0.4255890487E-05   0.0000000000E+00   0.0000000000E+00   0.2082517518E-01  -0.2101802752E-02   0.0000000000E+00  -0.4425376133E-02
   0.1750131778E+00   0.9779989803E-01   0.6695876273E-04  -0.4499274199E-05   0.0000000000E+00   0.0000000000E+00   0.2047695134E-01  -0.2756327501E-02   0.0000000000E+00  -0.4917588903E-02
   0.1510316501E+00   0.1000298884E+00   0.6110207370E-04  -0.6717639358E-05   0.0000000000E+00   0.0000000000E+00   0.2236028935E-01  -0.4641580547E-02   0.0000000000E+00  -0.5162641949E-02
   0.1381611060E+00   0.9239017911E-01   0.6001998966E-04  -0.7272288399E-05   0.0000000000E+00   0.0000000000E+00   0.2172971380E-01  -0.5492806212E-02   0.0000000000E+00  -0.5832022083E-02
   0.1558251354E+00   0.9054071965E-01   0.6441537679E-04  -0.5247549371E-05   0.0000000000E+00   0.0000000000E+00   0.2005781684E-01  -0.4128301340E-02   0.0000000000E+00  -0.5709123712E-02
   0.1445963279E+00   0.9621005774E-01   0.6051792404E-04  -0.6971064198E-05   0.0000000000E+00   0.0000000000E+00   0.2202170120E-01  -0.5040947183E-02   0.0000000000E+00  -0.5478889539E-02
   0.1428437966E+00   0.8681023708E-01   0.6256864062E-04  -0.6096118759E-05   0.0000000000E+00   0.0000000000E+00   0.1995830870E-01  -0.5102204210E-02   0.0000000000E+00  -0.6118075002E-02
   0.1516757033E+00   0.8588545248E-01   0.6465825253E-04  -0.5138619372E-05   0.0000000000E+00   0.0000000000E+00   0.1923454998E-01  -0.4325870050E-02   0.0000000000E+00  -0.6018844633E-02
   0.1534284176E+00   0.9528532763E-01   0.6277558402E-04  -0.5959072888E-05   0.0000000000E+00   0.0000000000E+00   0.2119440462E-01  -0.4385235620E-02   0.0000000000E+00  -0.5450204854E-02
   0.1273066570E+00   0.1185580635E+00   0.5027803012E-04  -0.1225646320E-04   0.0000000000E+00   0.0000000000E+00   0.2774473834E-01  -0.5532160673E-02   0.0000000000E+00  -0.3036480228E-02
   0.1259859890E+00   0.1331226640E+00   0.4657499798E-04  -0.1448797996E-04   0.0000000000E+00   0.0000000000E+00   0.2936653097E-01  -0.4923147244E-02   0.0000000000E+00  -0.1355507810E-02
   0.1144818537E+00   0.1297015061E+00   0.4371473963E-04  -0.1614187675E-04   0.0000000000E+00   0.0000000000E+00   0.3039594241E-01  -0.5000827389E-02   0.0000000000E+00  -0.1143499223E-02
   0.1180532812E+00   0.1168673407E+00   0.4794624442E-04  -0.1364230440E-04   0.0000000000E+00   0.0000000000E+00   0.2857907344E-01  -0.5636355305E-02   0.0000000000E+00  -0.2869900640E-02
   0.1266462643E+00   0.1258403577E+00   0.4836831386E-04  -0.1337433760E-04   0.0000000000E+00   0.0000000000E+00   0.2867209455E-01  -0.5187884056E-02   0.0000000000E+00  -0.2202880699E-02
   0.1202339256E+00   0.1314121186E+00   0.4515264251E-04  -0.1528837526E-04   0.0000000000E+00   0.0000000000E+00   0.2989858737E-01  -0.5047406125E-02   0.0000000000E+00  -0.1237695366E-02
   0.1116407548E+00   0.1224389658E+00   0.4453578007E-04  -0.1567719791E-04   0.0000000000E+00   0.0000000000E+00   0.3011249937E-01  -0.5246554850E-02   0.0000000000E+00  -0.1898839191E-02
   0.2290499893E+00   0.1294865419E+00   0.7408227415E-04  -0.4146085119E-05   0.0000000000E+00   0.0000000000E+00   0.2254168821E-01  -0.2210273464E-03   0.0000000000E+00  -0.2814055880E-02
   0.2300387851E+00   0.1381084822E+00   0.7333707680E-04  -0.4718818430E-05   0.0000000000E+00   0.0000000000E+00   0.2337600173E-01  -0.2767213818E-03   0.0000000000E+00  -0.2565449553E-02
   0.2364720100E+00   0.1287363843E+00   0.7583097886E-04  -0.3806712838E-05   0.0000000000E+00   0.0000000000E+00   0.2231183810E-01   0.8642089952E-04   0.0000000000E+00  -0.2703588732E-02
   0.2449590490E+00   0.1363121460E+00   0.7697195064E-04  -0.4004036167E-05   0.0000000000E+00   0.0000000000E+00   0.2284686600E-01   0.2763908954E-03   0.0000000000E+00  -0.2404370781E-02
   0.2011975540E+00   0.1332314365E+00   0.6707404265E-04  -0.5910523390E-05   0.0000000000E+00   0.0000000000E+00   0.2388117274E-01  -0.1557888088E-02   0.0000000000E+00  -0.2958159896E-02
   0.1975856412E+00   0.1181046259E+00   0.6845522027E-04  -0.4846129592E-05   0.0000000000E+00   0.0000000000E+00   0.2233432315E-01  -0.1630705357E-02   0.0000000000E+00  -0.3627234475E-02
   0.2149768885E+00   0.1311536339E+00   0.7064353628E-04  -0.4927130404E-05   0.0000000000E+00   0.0000000000E+00   0.2313581260E-01  -0.8661143142E-03   0.0000000000E+00  -0.2941332449E-02
   0.1993915707E+00   0.1256680387E+00   0.6773769042E-04  -0.5374254861E-05   0.0000000000E+00   0.0000000000E+00   0.2315672367E-01  -0.1587976499E-02   0.0000000000E+00  -0.3286711713E-02
   0.2045035032E+00   0.1163857989E+00   0.7027023600E-04  -0.4325137404E-05   0.0000000000E+00   0.0000000000E+00   0.2188005825E-01  -0.1218299283E-02   0.0000000000E+00  -0.3585448432E-02
   0.2131990751E+00   0.1229102786E+00   0.7131309948E-04  -0.4385404506E-05   0.0000000000E+00   0.0000000000E+00   0.2232275684E-01  -0.8241112176E-03   0.0000000000E+00  -0.3230455461E-02
   0.2080872412E+00   0.1321925521E+00   0.6887815896E-04  -0.5393926167E-05   0.0000000000E+00   0.0000000000E+00   0.2350546512E-01  -0.1200010559E-02   0.0000000000E+00  -0.2949311888E-02
   0.1086300666E+00   0.1384960611E+00   0.3993364496E-04  -0.1854691069E-04   0.0000000000E+00   0.0000000000E+00   0.3156597860E-01  -0.4375346021E-02   0.0000000000E+00   0.1567102702E-03
   0.1062230012E+00   0.1517370475E+00   0.3668619324E-04  -0.2081849634E-04   0.0000000000E+00   0.0000000000E+00   0.3178754825E-01  -0.3477702000E-02   0.0000000000E+00   0.1478380376E-02
   0.1048227362E+00   0.1435210274E+00   0.3769619431E-04  -0.2002561106E-04   0.0000000000E+00   0.0000000000E+00   0.3193754669E-01  -0.3852237940E-02   0.0000000000E+00   0.8477879437E-03
   0.1162690720E+00   0.1437918894E+00   0.4137795535E-04  -0.1774157569E-04   0.0000000000E+00   0.0000000000E+00   0.3087340238E-01  -0.4235779816E-02   0.0000000000E+00   0.2092227446E-03
   0.2156771935E+00   0.1389584004E+00   0.6981850047E-04  -0.5507556817E-05   0.0000000000E+00   0.0000000000E+00   0.2388809875E-01  -0.8696417882E-03   0.0000000000E+00  -0.2663719342E-02
   0.2220134636E+00   0.1303201166E+00   0.7237959123E-04  -0.4515360571E-05   0.0000000000E+00   0.0000000000E+00   0.2284026180E-01  -0.5381047742E-03   0.0000000000E+00  -0.2878990359E-02
   0.1718249165E+00   0.1536273314E+00   0.5632553000E-04  -0.1052462248E-04   0.0000000000E+00   0.0000000000E+00   0.2721931612E-01  -0.2701766461E-02   0.0000000000E+00  -0.1525308799E-02
   0.1687992712E+00   0.1364849135E+00   0.5826818290E-04  -0.8977541916E-05   0.0000000000E+00   0.0000000000E+00   0.2597927723E-01  -0.3286438421E-02   0.0000000000E+00  -0.2552325483E-02
   0.1863584762E+00   0.1396182369E+00   0.6240019163E-04  -0.7625099990E-05   0.0000000000E+00   0.0000000000E+00   0.2523799533E-01  -0.2300385319E-02   0.0000000000E+00  -0.2595506268E-02
   0.1775788970E+00   0.1380516224E+00   0.6034997357E-04  -0.8261647046E-05   0.0000000000E+00   0.0000000000E+00   0.2560808249E-01  -0.2779705173E-02   0.0000000000E+00  -0.2565980626E-02
   0.1830943702E+00   0.1474522621E+00   0.6035218365E-04  -0.8704857927E-05   0.0000000000E+00   0.0000000000E+00   0.2609061618E-01  -0.2332145893E-02   0.0000000000E+00  -0.2130404888E-02
   0.1663094000E+00   0.1442266576E+00   0.5628002227E-04  -0.1011540543E-04   0.0000000000E+00   0.0000000000E+00   0.2685011503E-01  -0.3161396499E-02   0.0000000000E+00  -0.1957456147E-02
   0.1627046463E+00   0.1046990792E+00   0.6280828207E-04  -0.6112802748E-05   0.0000000000E+00   0.0000000000E+00   0.2235640590E-01  -0.3822030625E-02   0.0000000000E+00  -0.4752796947E-02
   0.1484777026E+00   0.1059552364E+00   0.5908264347E-04  -0.7680593618E-05   0.0000000000E+00   0.0000000000E+00   0.2361978633E-01  -0.4789288108E-02   0.0000000000E+00  -0.4672128668E-02
   0.1568681445E+00   0.1023645037E+00   0.6194345865E-04  -0.6399273301E-05   0.0000000000E+00   0.0000000000E+00   0.2232294083E-01  -0.4206607562E-02   0.0000000000E+00  -0.4945330595E-02
   0.1606823063E+00   0.1111800572E+00   0.6096133200E-04  -0.6998849084E-05   0.0000000000E+00   0.0000000000E+00   0.2351462209E-01  -0.3960571918E-02   0.0000000000E+00  -0.4269273750E-02
   0.1844456332E+00   0.1214598044E+00   0.6483315812E-04  -0.6020581559E-05   0.0000000000E+00   0.0000000000E+00   0.2337943228E-01  -0.2468787163E-02   0.0000000000E+00  -0.3580295900E-02
   0.1716056112E+00   0.1218061963E+00   0.6161018409E-04  -0.7115708173E-05   0.0000000000E+00   0.0000000000E+00   0.2419504833E-01  -0.3274691162E-02   0.0000000000E+00  -0.3564618683E-02
   0.1854020173E+00   0.1305390231E+00   0.6357930815E-04  -0.6816859596E-05   0.0000000000E+00   0.0000000000E+00   0.2436238658E-01  -0.2380579271E-02   0.0000000000E+00  -0.3086844559E-02
   0.1702024265E+00   0.1291455770E+00   0.5992454791E-04  -0.8032001438E-05   0.0000000000E+00   0.0000000000E+00   0.2515306003E-01  -0.3256119209E-02   0.0000000000E+00  -0.3052089120E-02
   0.1780256324E+00   0.1216330228E+00   0.6323940845E-04  -0.6542152836E-05   0.0000000000E+00   0.0000000000E+00   0.2378197798E-01  -0.2858771054E-02   0.0000000000E+00  -0.3573828336E-02
   0.1156619537E+00   0.9813321293E-01   0.5267271109E-04  -0.1145987454E-04   0.0000000000E+00   0.0000000000E+00   0.2544220844E-01  -0.6182300230E-02   0.0000000000E+00  -0.5188147723E-02
   0.1200987248E+00   0.9075624514E-01   0.5618481254E-04  -0.9685555276E-05   0.0000000000E+00   0.0000000000E+00   0.2278976706E-01  -0.6235452357E-02   0.0000000000E+00  -0.5895482952E-02
   0.1075512691E+00   0.9354274429E-01   0.5203506841E-04  -0.1244541086E-04   0.0000000000E+00   0.0000000000E+00   0.2479411545E-01  -0.5937054213E-02   0.0000000000E+00  -0.5538232622E-02
   0.1910156650E+00   0.1197822455E+00   0.6667200088E-04  -0.5402452008E-05   0.0000000000E+00   0.0000000000E+00   0.2285280002E-01  -0.2058655947E-02   0.0000000000E+00  -0.3615953080E-02
   0.1825021047E+00   0.1135547481E+00   0.6572770471E-04  -0.5421900090E-05   0.0000000000E+00   0.0000000000E+00   0.2248036672E-01  -0.2487979960E-02   0.0000000000E+00  -0.4007748877E-02
   0.1950241341E+00   0.1094607640E+00   0.6923210024E-04  -0.4283980449E-05   0.0000000000E+00   0.0000000000E+00   0.2135624099E-01  -0.1620549261E-02   0.0000000000E+00  -0.4005878242E-02
   0.2276366538E+00   0.1208922010E+00   0.7476275172E-04  -0.3617004929E-05   0.0000000000E+00   0.0000000000E+00   0.2170228898E-01  -0.1125732490E-03   0.0000000000E+00  -0.3040939513E-02
   0.1025223230E+00   0.1330645844E+00   0.3906499273E-04  -0.1908663717E-04   0.0000000000E+00   0.0000000000E+00   0.3194599798E-01  -0.4386755818E-02   0.0000000000E+00  -0.1588147342E-03
   0.1937780525E+00   0.1364248827E+00   0.6477448845E-04  -0.6722287893E-05   0.0000000000E+00   0.0000000000E+00   0.2456136777E-01  -0.1917770480E-02   0.0000000000E+00  -0.2776883409E-02
   0.2033169809E+00   0.1388303033E+00   0.6681085058E-04  -0.6259679121E-05   0.0000000000E+00   0.0000000000E+00   0.2435255044E-01  -0.1433228399E-02   0.0000000000E+00  -0.2701031182E-02
   0.1926537027E+00   0.1456760523E+00   0.6313870770E-04  -0.7683712152E-05   0.0000000000E+00   0.0000000000E+00   0.2550131187E-01  -0.1925326905E-02   0.0000000000E+00  -0.2348891660E-02
   0.1122308522E+00   0.1066548560E+00   0.4906215190E-04  -0.1330304638E-04   0.0000000000E+00   0.0000000000E+00   0.2770312391E-01  -0.5853836514E-02   0.0000000000E+00  -0.3976492912E-02
   0.1314743968E+00   0.1053051270E+00   0.5484277095E-04  -0.9805958733E-05   0.0000000000E+00   0.0000000000E+00   0.2517439893E-01  -0.5751674499E-02   0.0000000000E+00  -0.4628144416E-02
   0.1313481688E+00   0.8788471563E-01   0.5972981100E-04  -0.7608070119E-05   0.0000000000E+00   0.0000000000E+00   0.2098898708E-01  -0.5788584407E-02   0.0000000000E+00  -0.6165047990E-02
   0.1348177704E+00   0.9884769876E-01   0.5745044630E-04  -0.8497042127E-05   0.0000000000E+00   0.0000000000E+00   0.2343943011E-01  -0.5633384167E-02   0.0000000000E+00  -0.5248295213E-02
   0.1235681303E+00   0.1017192413E+00   0.5371629625E-04  -0.1056165309E-04   0.0000000000E+00   0.0000000000E+00   0.2517881765E-01  -0.6035077966E-02   0.0000000000E+00  -0.4851874259E-02
   0.1614744678E+00   0.1339261634E+00   0.5672979595E-04  -0.9496635139E-05   0.0000000000E+00   0.0000000000E+00   0.2628917107E-01  -0.3682544431E-02   0.0000000000E+00  -0.2564841551E-02
   0.1719097369E+00   0.1103362843E+00   0.6383887312E-04  -0.5912738547E-05   0.0000000000E+00   0.0000000000E+00   0.2265861257E-01  -0.3205430106E-02   0.0000000000E+00  -0.4295484263E-02
   0.1762342079E+00   0.1079930031E+00   0.6528887041E-04  -0.5352911014E-05   0.0000000000E+00   0.0000000000E+00   0.2202680531E-01  -0.2898246639E-02   0.0000000000E+00  -0.4372292400E-02
   0.1673071768E+00   0.1075176865E+00   0.6330883002E-04  -0.6008544484E-05   0.0000000000E+00   0.0000000000E+00   0.2246921753E-01  -0.3507044563E-02   0.0000000000E+00  -0.4500146289E-02
   0.1660862974E+00   0.9732464583E-01   0.6512939102E-04  -0.5089972102E-05   0.0000000000E+00   0.0000000000E+00   0.2081967915E-01  -0.3442011991E-02   0.0000000000E+00  -0.5115286137E-02
   0.1626465226E+00   0.9024544774E-01   0.6591360596E-04  -0.4671860782E-05   0.0000000000E+00   0.0000000000E+00   0.1966363344E-01  -0.3596284258E-02   0.0000000000E+00  -0.5539298826E-02
   0.1717576612E+00   0.1160712439E+00   0.6271221132E-04  -0.6507105028E-05   0.0000000000E+00   0.0000000000E+00   0.2345020266E-01  -0.3221242233E-02   0.0000000000E+00  -0.3938551265E-02
   0.1651327716E+00   0.1197336071E+00   0.6036061631E-04  -0.7504940509E-05   0.0000000000E+00   0.0000000000E+00   0.2439707343E-01  -0.3685780105E-02   0.0000000000E+00  -0.3676180494E-02
   0.1293905028E+00   0.1119316142E+00   0.5253680552E-04  -0.1101275625E-04   0.0000000000E+00   0.0000000000E+00   0.2656082700E-01  -0.5629077708E-02   0.0000000000E+00  -0.3813529595E-02
   0.1386990410E+00   0.1085928619E+00   0.5592498126E-04  -0.9215085404E-05   0.0000000000E+00   0.0000000000E+00   0.2495474884E-01  -0.5340833453E-02   0.0000000000E+00  -0.4359012343E-02
   0.1345260371E+00   0.1213804800E+00   0.5171508833E-04  -0.1149400592E-04   0.0000000000E+00   0.0000000000E+00   0.2730356877E-01  -0.5233295960E-02   0.0000000000E+00  -0.2956116877E-02
   0.1249469819E+00   0.1411051521E+00   0.4464387975E-04  -0.1575893824E-04   0.0000000000E+00   0.0000000000E+00   0.2997451151E-01  -0.4457925457E-02   0.0000000000E+00  -0.5300297948E-03
   0.1316473279E+00   0.1339268797E+00   0.4813990795E-04  -0.1363832391E-04   0.0000000000E+00   0.0000000000E+00   0.2886642123E-01  -0.4787008553E-02   0.0000000000E+00  -0.1534432070E-02
   0.1115559410E+00   0.1340987879E+00   0.4180503222E-04  -0.1734013527E-04   0.0000000000E+00   0.0000000000E+00   0.3098402762E-01  -0.4672916249E-02   0.0000000000E+00  -0.5173206770E-03
   0.1953428736E+00   0.1553572036E+00   0.6250061625E-04  -0.8382448375E-05   0.0000000000E+00   0.0000000000E+00   0.2617461768E-01  -0.1672427068E-02   0.0000000000E+00  -0.1906543913E-02
   0.9231618496E-02   0.1250952047E+00   0.4329601148E-05  -0.3704700341E-04   0.0000000000E+00   0.0000000000E+00   0.4773568664E-01   0.7305943911E-02   0.0000000000E+00  -0.7954309628E-03
   0.8771453047E-01   0.2409493786E+00   0.1965456653E-04  -0.3353767579E-04   0.0000000000E+00   0.0000000000E+00   0.2556489736E-01  -0.8494927898E-05   0.0000000000E+00   0.1142435127E-02
   0.9409802843E-02   0.2249820943E+00   0.2181947958E-05  -0.4225948408E-04   0.0000000000E+00   0.0000000000E+00   0.2363270437E-01   0.7231550521E-03   0.0000000000E+00   0.1037998050E-02
   0.2493418263E+00   0.1014776271E+00   0.8121084924E-04  -0.1923500063E-05   0.0000000000E+00   0.0000000000E+00   0.1848826130E-01   0.1440839501E-02   0.0000000000E+00  -0.2849759659E-02
   0.9520282096E-01   0.5096868832E-01   0.6727395766E-04  -0.1133195597E-04   0.0000000000E+00   0.0000000000E+00  -0.1913057355E-02  -0.7322002121E-02   0.0000000000E+00   0.3153618900E-02
   0.1104774911E+00   0.1142697121E-01   0.7720672733E-04  -0.1963802270E-05   0.0000000000E+00   0.0000000000E+00   0.2575694901E-04  -0.1488344295E-01   0.0000000000E+00  -0.1394939966E-04
   0.1988163543E+00   0.2844137544E-01   0.8073352125E-04  -0.2939863142E-06   0.0000000000E+00   0.0000000000E+00   0.1105420213E-01   0.2008300985E-02   0.0000000000E+00  -0.2246781923E-02
   0.1473071003E+00   0.2242301300E+00   0.3947607324E-04  -0.2133378994E-04   0.0000000000E+00   0.0000000000E+00   0.3021000644E-01  -0.6821562088E-03   0.0000000000E+00   0.1153163971E-02
   0.9695653041E-02   0.1079633582E+00   0.6261000605E-05  -0.3534039983E-04   0.0000000000E+00   0.0000000000E+00   0.6617351788E-01   0.4239019100E-02   0.0000000000E+00   0.4580115668E-04
   0.8641818203E-02   0.1421889714E+00   0.3299367611E-05  -0.3799337172E-04   0.0000000000E+00   0.0000000000E+00   0.4076818328E-01   0.7758439150E-02   0.0000000000E+00   0.5116458375E-04
   0.4192746914E-01   0.1452673342E+00   0.1542848823E-04  -0.3412352079E-04   0.0000000000E+00   0.0000000000E+00   0.3914203401E-01   0.3941065934E-02   0.0000000000E+00   0.1713513351E-02
   0.8373729116E-02   0.1589128971E+00   0.2797880945E-05  -0.3872069986E-04   0.0000000000E+00   0.0000000000E+00   0.3507824677E-01   0.5843036662E-02   0.0000000000E+00   0.1534937009E-02
   0.2542770120E-01   0.1761653450E+00   0.7715798507E-05  -0.3835328592E-04   0.0000000000E+00   0.0000000000E+00   0.3042376415E-01   0.3299245911E-02   0.0000000000E+00   0.2293278880E-02
   0.2898314001E-01   0.2415246436E+00   0.5802633784E-05  -0.4213368105E-04   0.0000000000E+00   0.0000000000E+00   0.1867726278E-01  -0.6589878168E-04   0.0000000000E+00   0.3488688573E-04
   0.2502073030E-01   0.1600832724E+00   0.8305147669E-05  -0.3752762392E-04   0.0000000000E+00   0.0000000000E+00   0.3320058843E-01   0.4626339048E-02   0.0000000000E+00   0.2292192151E-02
   0.3398309595E+00   0.9486325074E-02   0.9859603044E-04  -0.3736340627E-08   0.0000000000E+00   0.0000000000E+00   0.1493574291E-01   0.4405952587E-02   0.0000000000E+00  -0.7963280635E-04
   0.3400907421E+00   0.2852243819E-01   0.9859188698E-04  -0.3555751016E-07   0.0000000000E+00   0.0000000000E+00   0.1528961131E-01   0.4260043841E-02   0.0000000000E+00  -0.2277303682E-03
   0.3211835551E+00   0.6597915284E-01   0.9541283422E-04  -0.3632880622E-06   0.0000000000E+00   0.0000000000E+00   0.1635307491E-01   0.3770645225E-02   0.0000000000E+00  -0.6060443158E-03
   0.3215501364E+00   0.8518895400E-01   0.9508243960E-04  -0.7349252375E-06   0.0000000000E+00   0.0000000000E+00   0.1748780022E-01   0.3324444462E-02   0.0000000000E+00  -0.7119931824E-03
   0.3215392358E+00   0.1241764219E+00   0.9415080333E-04  -0.2035823759E-05   0.0000000000E+00   0.0000000000E+00   0.2033678882E-01   0.2283115276E-02   0.0000000000E+00  -0.7735157423E-03
   0.2986471635E+00   0.9167599082E-02   0.9304826613E-04  -0.6918049217E-08   0.0000000000E+00   0.0000000000E+00   0.1460803326E-01   0.4204061385E-02   0.0000000000E+00  -0.4051013236E-03
   0.2229746549E+00   0.1550687810E+00   0.6970794146E-04  -0.6396539943E-05   0.0000000000E+00   0.0000000000E+00   0.2584144083E-01  -0.6681026491E-03   0.0000000000E+00  -0.1858005969E-02
   0.2191229142E+00   0.2796894540E-01   0.8288165423E-04  -0.1839511574E-06   0.0000000000E+00   0.0000000000E+00   0.1107862491E-01   0.2608551759E-02   0.0000000000E+00  -0.1412217694E-02
   0.1954415048E+00   0.9437654510E-02   0.8139551187E-04  -0.8158963710E-07   0.0000000000E+00   0.0000000000E+00   0.9455481745E-02   0.1715133647E-02   0.0000000000E+00  -0.1832823323E-02
   0.1325529720E+00   0.1177264684E-01   0.7783254327E-04  -0.8202304138E-06   0.0000000000E+00   0.0000000000E+00   0.3377656753E-03  -0.7185858068E-02   0.0000000000E+00   0.8368371413E-06
   0.3404331703E+00   0.2404440834E+00   0.9714601106E-04  -0.9916074163E-05   0.0000000000E+00   0.0000000000E+00   0.2951917412E-01   0.2672512094E-04   0.0000000000E+00  -0.5662636919E-06
   0.2823725586E+00   0.2407778863E+00   0.7980506211E-04  -0.1091618472E-04   0.0000000000E+00   0.0000000000E+00   0.3059218887E-01   0.8360460331E-05   0.0000000000E+00  -0.2392675575E-03
   0.3404846489E+00   0.1635171735E+00   0.9769944518E-04  -0.4015481377E-05   0.0000000000E+00   0.0000000000E+00   0.2425943338E-01   0.1143122763E-02   0.0000000000E+00  -0.1059118971E-05
   0.3404972058E+00   0.1441430792E+00   0.9786551387E-04  -0.2912566548E-05   0.0000000000E+00   0.0000000000E+00   0.2271138013E-01   0.1599433603E-02   0.0000000000E+00  -0.7654500761E-06
   0.3405471429E+00   0.1247441622E+00   0.9804039385E-04  -0.1993012302E-05   0.0000000000E+00   0.0000000000E+00   0.2113309845E-01   0.2065182858E-02   0.0000000000E+00  -0.5101929559E-03
   0.3405859930E+00   0.1053747423E+00   0.9820699827E-04  -0.1264537974E-05   0.0000000000E+00   0.0000000000E+00   0.1966476645E-01   0.2617041590E-02   0.0000000000E+00  -0.3925521169E-06
   0.3405533523E+00   0.8607167036E-01   0.9834880545E-04  -0.7241884292E-06   0.0000000000E+00   0.0000000000E+00   0.1819117210E-01   0.3108893377E-02   0.0000000000E+00  -0.4946263936E-03
   0.3402896250E+00   0.4764976203E-01   0.9854423947E-04  -0.1392965776E-06   0.0000000000E+00   0.0000000000E+00   0.1607383074E-01   0.3999164725E-02   0.0000000000E+00  -0.3339224229E-06
   0.9637557037E-02   0.2416207688E+00   0.1898076965E-05  -0.4327248281E-04   0.0000000000E+00   0.0000000000E+00   0.2008794531E-01   0.1165975536E-03   0.0000000000E+00   0.4431667705E-03
   0.4672981721E-01   0.2074266240E+00   0.1231505692E-04  -0.3780648637E-04   0.0000000000E+00   0.0000000000E+00   0.2638140715E-01   0.6528491255E-03   0.0000000000E+00   0.2697653440E-02
   0.2753722064E-01   0.2083382325E+00   0.7145085570E-05  -0.4010826240E-04   0.0000000000E+00   0.0000000000E+00   0.2546196451E-01   0.1023555628E-02   0.0000000000E+00   0.1790288884E-02
   0.4795390067E-01   0.2240627614E+00   0.1146999041E-04  -0.3883787122E-04   0.0000000000E+00   0.0000000000E+00   0.2450400287E-01   0.5340644538E-03   0.0000000000E+00   0.1923259320E-02
   0.1463114550E+00   0.2412858070E+00   0.3676929013E-04  -0.2310900614E-04   0.0000000000E+00   0.0000000000E+00   0.3174668454E-01  -0.6639005020E-04   0.0000000000E+00   0.3208554386E-03
   0.1657760359E+00   0.2412552118E+00   0.4294440413E-04  -0.2019141438E-04   0.0000000000E+00   0.0000000000E+00   0.3216938417E-01  -0.5582266519E-04   0.0000000000E+00   0.1109420157E-03
   0.2367967429E+00   0.9199851847E-02   0.8545310168E-04  -0.2821268163E-07   0.0000000000E+00   0.0000000000E+00   0.1235660154E-01   0.3232639894E-02   0.0000000000E+00  -0.1076623808E-02
   0.2060274584E+00   0.2071542566E+00   0.5934669799E-04  -0.1229590853E-04   0.0000000000E+00   0.0000000000E+00   0.2961032461E-01  -0.5641024150E-03   0.0000000000E+00  -0.3807198738E-03
   0.1279318733E+00   0.2240073041E+00   0.3363106055E-04  -0.2460567442E-04   0.0000000000E+00   0.0000000000E+00   0.2985647103E-01  -0.7040902188E-03   0.0000000000E+00   0.1866263610E-02
   0.2047256339E+00   0.2411600759E+00   0.5548068790E-04  -0.1562084143E-04   0.0000000000E+00   0.0000000000E+00   0.3198157383E-01  -0.2680092783E-04   0.0000000000E+00  -0.1647826950E-03
   0.2436034227E+00   0.2409317726E+00   0.6784498499E-04  -0.1263940917E-04   0.0000000000E+00   0.0000000000E+00   0.3156727201E-01  -0.1348460423E-04   0.0000000000E+00  -0.2302351224E-03
   0.2630030254E+00   0.2408607590E+00   0.7387693272E-04  -0.1164650538E-04   0.0000000000E+00   0.0000000000E+00   0.3108222242E-01  -0.1456460417E-05   0.0000000000E+00  -0.2515944128E-03
   0.3210808540E+00   0.2405696670E+00   0.9141676028E-04  -0.1007925967E-04   0.0000000000E+00   0.0000000000E+00   0.2959815314E-01   0.2490890292E-04   0.0000000000E+00  -0.7596813570E-04
   0.5708625862E-01   0.9435205259E-01   0.3691437169E-04  -0.2639450677E-04   0.0000000000E+00   0.0000000000E+00   0.4126340077E-01   0.1220698622E-01   0.0000000000E+00  -0.2012434240E-01
   0.9087333866E-02   0.2084229224E+00   0.2343626459E-05  -0.4124155631E-04   0.0000000000E+00   0.0000000000E+00   0.2633873836E-01   0.1917197150E-02   0.0000000000E+00   0.1498797460E-04
   0.8727228151E-02   0.1919282623E+00   0.2445561071E-05  -0.4029796248E-04   0.0000000000E+00   0.0000000000E+00   0.2902476406E-01   0.3319540209E-02   0.0000000000E+00   0.1557541853E-04
   0.2844740190E-01   0.1061033470E+00   0.1797332693E-04  -0.3332150736E-04   0.0000000000E+00   0.0000000000E+00   0.6132300904E-01   0.5143993587E-02   0.0000000000E+00  -0.7246347027E-02
   0.8446596305E-02   0.1754427082E+00   0.2564614915E-05  -0.3946108839E-04   0.0000000000E+00   0.0000000000E+00   0.3187894176E-01   0.4890073493E-02   0.0000000000E+00   0.2256868456E-04
   0.2553484902E-01   0.1434760911E+00   0.9594819089E-05  -0.3658239902E-04   0.0000000000E+00   0.0000000000E+00   0.3675339474E-01   0.5802103597E-02   0.0000000000E+00   0.2055584958E-02
   0.2640885535E-01   0.1921920133E+00   0.7422173419E-05  -0.3919448971E-04   0.0000000000E+00   0.0000000000E+00   0.2797014536E-01   0.2071149454E-02   0.0000000000E+00   0.2137766561E-02
   0.2574309188E+00   0.9158467215E-02   0.8783507452E-04  -0.1744520781E-07   0.0000000000E+00   0.0000000000E+00   0.1298128299E-01   0.3743432319E-02   0.0000000000E+00  -0.8008848748E-05
   0.2471641054E+00   0.8327620548E-01   0.8245690235E-04  -0.1213816313E-05   0.0000000000E+00   0.0000000000E+00   0.1753141850E-01   0.1353310245E-02   0.0000000000E+00  -0.3144434275E-02
   0.2998827202E+00   0.2764361033E-01   0.9301541913E-04  -0.4554612632E-07   0.0000000000E+00   0.0000000000E+00   0.1504808182E-01   0.4161488163E-02   0.0000000000E+00  -0.4592674286E-03
   0.3404474877E+00   0.6683333146E-01   0.9846173560E-04  -0.3573876822E-06   0.0000000000E+00   0.0000000000E+00   0.1705699052E-01   0.3602481440E-02   0.0000000000E+00  -0.3328421658E-06
   0.3206568290E+00   0.4690633848E-01   0.9565099281E-04  -0.1429678646E-06   0.0000000000E+00   0.0000000000E+00   0.1635307491E-01   0.3770645225E-02   0.0000000000E+00  -0.6060443158E-03
   0.3192584079E+00   0.9280194518E-02   0.9580014588E-04  -0.4682341004E-08   0.0000000000E+00   0.0000000000E+00   0.1476324721E-01   0.4409553487E-02   0.0000000000E+00  -0.2235426355E-05
   0.3405352706E+00   0.2021254524E+00   0.9741081596E-04  -0.6713111676E-05   0.0000000000E+00   0.0000000000E+00   0.2717453740E-01   0.4131180882E-03   0.0000000000E+00  -0.1167837808E-05
   0.3405215175E+00   0.2213255661E+00   0.9727828721E-04  -0.8265382950E-05   0.0000000000E+00   0.0000000000E+00   0.2852233215E-01   0.1567700493E-03   0.0000000000E+00  -0.1956340749E-03
   0.3405028331E+00   0.1828448708E+00   0.9754738484E-04  -0.5288176950E-05   0.0000000000E+00   0.0000000000E+00   0.2582026193E-01   0.7135823509E-03   0.0000000000E+00  -0.3642454161E-03
   0.2830419452E+00   0.2033790109E+00   0.8166442286E-04  -0.7664624642E-05   0.0000000000E+00   0.0000000000E+00   0.2761915502E-01   0.2673116200E-03   0.0000000000E+00  -0.7770636831E-03
   0.2024550040E+00   0.4769919127E-01   0.7936848643E-04  -0.6690012178E-06   0.0000000000E+00   0.0000000000E+00   0.1389125093E-01   0.7459119590E-03   0.0000000000E+00  -0.4018096265E-02
   0.6788842984E-01   0.1193072903E+00   0.3044818852E-04  -0.2571818722E-04   0.0000000000E+00   0.0000000000E+00   0.3493741406E-01  -0.1873371215E-02   0.0000000000E+00  -0.3756157741E-03
   0.6809231330E-01   0.2410116359E+00   0.1463172689E-04  -0.3698732186E-04   0.0000000000E+00   0.0000000000E+00   0.2553136453E-01   0.3628694071E-04   0.0000000000E+00   0.2026001633E-02
   0.4808855157E-01   0.1096499623E+00   0.2587406557E-04  -0.2984659552E-04   0.0000000000E+00   0.0000000000E+00   0.4270521079E-01   0.3776609616E-02   0.0000000000E+00  -0.1512727186E-02
   0.6733692398E-01   0.2050630445E+00   0.1822095323E-04  -0.3429954924E-04   0.0000000000E+00   0.0000000000E+00   0.2903506055E-01  -0.1752731479E-03   0.0000000000E+00   0.3614012897E-02
   0.4848455660E-01   0.2412756320E+00   0.1001287797E-04  -0.3996048026E-04   0.0000000000E+00   0.0000000000E+00   0.2075000029E-01  -0.4054293317E-04   0.0000000000E+00   0.5164156638E-04
   0.3216761133E+00   0.1045741369E+00   0.9466027810E-04  -0.1285913533E-05   0.0000000000E+00   0.0000000000E+00   0.1883482092E-01   0.2816941183E-02   0.0000000000E+00  -0.7653888014E-03
   0.1861360741E+00   0.2240680701E+00   0.5146855183E-04  -0.1594540943E-04   0.0000000000E+00   0.0000000000E+00   0.3144101192E-01  -0.1170466635E-03   0.0000000000E+00   0.4171044939E-04
   0.3213197297E+00   0.1439084628E+00   0.9360223662E-04  -0.2987974612E-05   0.0000000000E+00   0.0000000000E+00   0.2193258341E-01   0.1757673534E-02   0.0000000000E+00  -0.7445016869E-03
   0.3212315177E+00   0.1635782478E+00   0.9308393589E-04  -0.4125716603E-05   0.0000000000E+00   0.0000000000E+00   0.2429765418E-01   0.1106618768E-02   0.0000000000E+00  -0.4286868238E-03
   0.2241788520E+00   0.2410453698E+00   0.6170753186E-04  -0.1394871305E-04   0.0000000000E+00   0.0000000000E+00   0.3156727201E-01  -0.1348460423E-04   0.0000000000E+00  -0.2302351224E-03
   0.2780374114E+00   0.9138910416E-02   0.9038036978E-04  -0.1089366258E-07   0.0000000000E+00   0.0000000000E+00   0.1380494465E-01   0.4057449196E-02   0.0000000000E+00  -0.5213074928E-05
   0.2829179196E+00   0.2222364120E+00   0.8072956318E-04  -0.9251533773E-05   0.0000000000E+00   0.0000000000E+00   0.2930266820E-01   0.5828648152E-04   0.0000000000E+00  -0.6207326623E-03
   0.2843049375E-01   0.2247739925E+00   0.6658679020E-05  -0.4110747107E-04   0.0000000000E+00   0.0000000000E+00   0.2250630151E-01   0.2512967247E-03   0.0000000000E+00   0.1147929004E-02
   0.1268495311E+00   0.2412404041E+00   0.3077859565E-04  -0.2638642000E-04   0.0000000000E+00   0.0000000000E+00   0.3086258133E-01  -0.7044452810E-04   0.0000000000E+00   0.5626661875E-03
   0.7072351911E-01   0.8208032045E-01   0.4813763421E-04  -0.2172682809E-04   0.0000000000E+00   0.0000000000E+00   0.1928977166E-01   0.1207172320E-01   0.0000000000E+00  -0.1478586122E-01
   0.2249951639E+00   0.2234093525E+00   0.6344736010E-04  -0.1223595424E-04   0.0000000000E+00   0.0000000000E+00   0.3100773706E-01  -0.4483516284E-04   0.0000000000E+00  -0.3756896833E-03
   0.1852501365E+00   0.2412111001E+00   0.4920727678E-04  -0.1769238666E-04   0.0000000000E+00   0.0000000000E+00   0.3221524893E-01  -0.4153528528E-04   0.0000000000E+00  -0.5272425610E-04
   0.1684140559E+00   0.1920348077E+00   0.5000788913E-04  -0.1502002473E-04   0.0000000000E+00   0.0000000000E+00   0.2909774027E-01  -0.1263652145E-02   0.0000000000E+00  -0.1556262384E-03
   0.2637049020E+00   0.2225778705E+00   0.7508554793E-04  -0.9964261805E-05   0.0000000000E+00   0.0000000000E+00   0.2930266820E-01   0.5828648152E-04   0.0000000000E+00  -0.6207326623E-03
   0.3213742814E+00   0.2025051810E+00   0.9220710849E-04  -0.6874799562E-05   0.0000000000E+00   0.0000000000E+00   0.2798301818E-01   0.2339247604E-03   0.0000000000E+00  -0.3595502285E-03
   0.3021765888E+00   0.2028669588E+00   0.8695727055E-04  -0.7180233627E-05   0.0000000000E+00   0.0000000000E+00   0.2739167807E-01   0.3452057155E-03   0.0000000000E+00  -0.5535118081E-03
   0.1073212434E+00   0.2410931450E+00   0.2505182605E-04  -0.2992003662E-04   0.0000000000E+00   0.0000000000E+00   0.2766899907E-01  -0.4662318529E-04   0.0000000000E+00   0.1032949356E-02
   0.5734816109E-01   0.1478288724E+00   0.2061026591E-04  -0.3122632440E-04   0.0000000000E+00   0.0000000000E+00   0.3488969891E-01   0.1745438234E-02   0.0000000000E+00   0.3301361458E-02
   0.4437407604E-01   0.1284057467E+00   0.1906454133E-04  -0.3232528697E-04   0.0000000000E+00   0.0000000000E+00   0.3914203401E-01   0.3941065934E-02   0.0000000000E+00   0.1713513351E-02
   0.8371019548E-01   0.6750485712E-01   0.5866025876E-04  -0.1659852953E-04   0.0000000000E+00   0.0000000000E+00   0.1516217822E-01  -0.3033282872E-02   0.0000000000E+00  -0.6380808473E-02
   0.1388976992E+00   0.3312520813E-01   0.7529294781E-04  -0.1872090185E-05   0.0000000000E+00   0.0000000000E+00   0.2496687407E-02  -0.5882293757E-02   0.0000000000E+00  -0.3338147315E-02
   0.1053650460E+00   0.3256079272E-01   0.7360093942E-04  -0.6154684910E-05   0.0000000000E+00   0.0000000000E+00   0.2331007426E-02  -0.9810740522E-02   0.0000000000E+00  -0.3413826517E-02
   0.1541452792E+00   0.1011976421E-01   0.7869815880E-04  -0.3146811784E-06   0.0000000000E+00   0.0000000000E+00   0.3357504947E-02  -0.2169376148E-02   0.0000000000E+00  -0.9683406645E-04
   0.2695910096E-01   0.1257487461E+00   0.1228200759E-04  -0.3529743898E-04   0.0000000000E+00   0.0000000000E+00   0.4988572161E-01   0.6334914958E-02   0.0000000000E+00  -0.2581290273E-02
   0.2161243917E+00   0.9298732204E-02   0.8328522076E-04  -0.4686633609E-07   0.0000000000E+00   0.0000000000E+00   0.1107862491E-01   0.2608551759E-02   0.0000000000E+00  -0.1412217694E-02
   0.2847734750E+00   0.1026080662E+00   0.8781153062E-04  -0.1465360727E-05   0.0000000000E+00   0.0000000000E+00   0.1935422118E-01   0.1944325618E-02   0.0000000000E+00  -0.2032174571E-02
   0.3027175963E+00   0.8436806792E-01   0.9187251177E-04  -0.7794530975E-06   0.0000000000E+00   0.0000000000E+00   0.1872759673E-01   0.2651946448E-02   0.0000000000E+00  -0.1273584824E-02
   0.3200187107E+00   0.2798266124E-01   0.9578624410E-04  -0.3795727567E-07   0.0000000000E+00   0.0000000000E+00   0.1549157621E-01   0.4119036387E-02   0.0000000000E+00  -0.4453782155E-03
   0.3030341785E+00   0.1036675382E+00   0.9118721989E-04  -0.1352335162E-05   0.0000000000E+00   0.0000000000E+00   0.1872759673E-01   0.2651946448E-02   0.0000000000E+00  -0.1273584824E-02
   0.1675833896E+00   0.2078477746E+00   0.4776458042E-04  -0.1671810017E-04   0.0000000000E+00   0.0000000000E+00   0.3002700077E-01  -0.9435985836E-03   0.0000000000E+00   0.7870961200E-03
   0.1748227145E+00   0.9627767717E-02   0.7985520103E-04  -0.1519133671E-06   0.0000000000E+00   0.0000000000E+00   0.6164225646E-02   0.2956631830E-03   0.0000000000E+00  -0.3837162085E-04
   0.1787500957E+00   0.2894360785E-01   0.7883970219E-04  -0.4928743535E-06   0.0000000000E+00   0.0000000000E+00   0.1007504109E-01   0.5049866482E-04   0.0000000000E+00  -0.4030454080E-02
   0.3027698575E+00   0.1233297050E+00   0.9032650230E-04  -0.2135982782E-05   0.0000000000E+00   0.0000000000E+00   0.2028374970E-01   0.2117218753E-02   0.0000000000E+00  -0.1278065790E-02
   0.4456381051E-01   0.1915533746E+00   0.1266148648E-04  -0.3697168171E-04   0.0000000000E+00   0.0000000000E+00   0.2856077357E-01   0.1333089539E-02   0.0000000000E+00   0.3201852883E-02
   0.4257280392E-01   0.1761754781E+00   0.1298926536E-04  -0.3618489429E-04   0.0000000000E+00   0.0000000000E+00   0.3300334317E-01   0.3024871596E-02   0.0000000000E+00   0.3341050426E-02
   0.4152205068E-01   0.1609635397E+00   0.1373740861E-04  -0.3530058953E-04   0.0000000000E+00   0.0000000000E+00   0.3576329293E-01   0.3790829524E-02   0.0000000000E+00   0.3002742906E-02
   0.3019852452E+00   0.6528540600E-01   0.9240621225E-04  -0.3912206048E-06   0.0000000000E+00   0.0000000000E+00   0.1612126938E-01   0.3620432381E-02   0.0000000000E+00  -0.1021430391E-02
   0.3020735740E+00   0.1433885830E+00   0.8932350847E-04  -0.3144452236E-05   0.0000000000E+00   0.0000000000E+00   0.2363629484E-01   0.1115292623E-02   0.0000000000E+00  -0.1114836439E-02
   0.2596199133E+00   0.2753509644E-01   0.8770776241E-04  -0.8323588060E-07   0.0000000000E+00   0.0000000000E+00   0.1334133597E-01   0.3674464480E-02   0.0000000000E+00  -0.8108195695E-03
   0.2420547052E+00   0.4622219316E-01   0.8456423484E-04  -0.3213118897E-06   0.0000000000E+00   0.0000000000E+00   0.1491455426E-01   0.2473915784E-02   0.0000000000E+00  -0.2532787121E-02
   0.2797473647E+00   0.2750630433E-01   0.9031316761E-04  -0.5974742026E-07   0.0000000000E+00   0.0000000000E+00   0.1464715951E-01   0.3983013447E-02   0.0000000000E+00  -0.7077394369E-03
   0.3212884266E+00   0.1831163861E+00   0.9262261169E-04  -0.5428432604E-05   0.0000000000E+00   0.0000000000E+00   0.2512222701E-01   0.8546059267E-03   0.0000000000E+00  -0.5901368020E-03
   0.2443864174E+00   0.2229408117E+00   0.6932562232E-04  -0.1093901593E-04   0.0000000000E+00   0.0000000000E+00   0.2921723900E-01  -0.5496122196E-04   0.0000000000E+00  -0.8064440721E-03
   0.2446517050E+00   0.2051804070E+00   0.7075428180E-04  -0.9357225862E-05   0.0000000000E+00   0.0000000000E+00   0.2877054955E-01  -0.1649886504E-03   0.0000000000E+00  -0.9333223682E-03
   0.1666845904E+00   0.2241962284E+00   0.4544166804E-04  -0.1842939061E-04   0.0000000000E+00   0.0000000000E+00   0.3032934620E-01  -0.5900625088E-03   0.0000000000E+00   0.5022711152E-03
   0.1717768792E+00   0.7640979980E-01   0.7054597711E-04  -0.2937603585E-05   0.0000000000E+00   0.0000000000E+00   0.1776723103E-01  -0.3098318697E-02   0.0000000000E+00  -0.5840829040E-02
   0.2055854843E+00   0.2238516449E+00   0.5748258937E-04  -0.1389438474E-04   0.0000000000E+00   0.0000000000E+00   0.3131891270E-01  -0.7952072214E-04   0.0000000000E+00  -0.2122272591E-03
   0.3020961177E+00   0.2219358760E+00   0.8628948654E-04  -0.8754212949E-05   0.0000000000E+00   0.0000000000E+00   0.2869535657E-01   0.1363620002E-03   0.0000000000E+00  -0.3745879948E-03
   0.3017213553E+00   0.2406800717E+00   0.8564250770E-04  -0.1040506184E-04   0.0000000000E+00   0.0000000000E+00   0.2981530975E-01   0.2138279020E-04   0.0000000000E+00  -0.1449628479E-03
   0.1082817453E+00   0.2234591426E+00   0.2789540542E-04  -0.2818590765E-04   0.0000000000E+00   0.0000000000E+00   0.2872864560E-01  -0.1509360644E-03   0.0000000000E+00   0.1685110338E-02
   0.8822401185E-01   0.2228584696E+00   0.2225250210E-04  -0.3194810629E-04   0.0000000000E+00   0.0000000000E+00   0.2852348830E-01  -0.3278660368E-03   0.0000000000E+00   0.3095615219E-02
   0.1294687157E+00   0.2072487746E+00   0.3630022590E-04  -0.2270765667E-04   0.0000000000E+00   0.0000000000E+00   0.2996416438E-01  -0.1405541055E-02   0.0000000000E+00   0.1962594102E-02
   0.2252914257E+00   0.2062133112E+00   0.6508667995E-04  -0.1065350464E-04   0.0000000000E+00   0.0000000000E+00   0.2922104459E-01  -0.3595193511E-03   0.0000000000E+00  -0.7319205606E-03
   0.2256618611E+00   0.6554076197E-01   0.8067731208E-04  -0.9021530087E-06   0.0000000000E+00   0.0000000000E+00   0.1652600446E-01   0.1202606371E-02   0.0000000000E+00  -0.3472104909E-02
   0.6986169114E-01   0.1545325404E+00   0.2402593839E-04  -0.2914656568E-04   0.0000000000E+00   0.0000000000E+00   0.3358985423E-01   0.3602691845E-03   0.0000000000E+00   0.3639482374E-02
   0.1498935436E+00   0.1915322769E+00   0.4452335346E-04  -0.1764283086E-04   0.0000000000E+00   0.0000000000E+00   0.2988450418E-01  -0.1767419735E-02   0.0000000000E+00   0.1370246435E-02
   0.2826375600E+00   0.1839575683E+00   0.8258371973E-04  -0.6159168295E-05   0.0000000000E+00   0.0000000000E+00   0.2645613200E-01   0.3040124944E-03   0.0000000000E+00  -0.1227253927E-02
   0.8292386139E-01   0.1639877178E+00   0.2715006505E-04  -0.2730670619E-04   0.0000000000E+00   0.0000000000E+00   0.3286103839E-01  -0.1984948664E-02   0.0000000000E+00   0.2834355595E-02
   0.2394152288E+00   0.2766535996E-01   0.8522050534E-04  -0.1209910194E-06   0.0000000000E+00   0.0000000000E+00   0.1330783410E-01   0.3322217878E-02   0.0000000000E+00  -0.1323389649E-02
   0.2840949603E+00   0.8365586523E-01   0.8872204224E-04  -0.8630748037E-06   0.0000000000E+00   0.0000000000E+00   0.1791915486E-01   0.2781940125E-02   0.0000000000E+00  -0.1489593412E-02
   0.2325349663E+00   0.1024585249E+00   0.7788029962E-04  -0.2352597585E-05   0.0000000000E+00   0.0000000000E+00   0.2058404993E-01   0.3486039116E-03   0.0000000000E+00  -0.3092717556E-02
   0.2813730611E+00   0.4605922272E-01   0.8998787905E-04  -0.1892280208E-06   0.0000000000E+00   0.0000000000E+00   0.1579922726E-01   0.3370224159E-02   0.0000000000E+00  -0.1465822145E-02
   0.3010078634E+00   0.4636564718E-01   0.9279319579E-04  -0.1586710449E-06   0.0000000000E+00   0.0000000000E+00   0.1612126938E-01   0.3620432381E-02   0.0000000000E+00  -0.1021430391E-02
   0.2828598328E+00   0.6479455866E-01   0.8944508271E-04  -0.4455669599E-06   0.0000000000E+00   0.0000000000E+00   0.1656478916E-01   0.3270331384E-02   0.0000000000E+00  -0.1343714747E-02
   0.1479508568E+00   0.4991401811E-01   0.7269084562E-04  -0.2383386800E-05   0.0000000000E+00   0.0000000000E+00   0.9620261395E-02  -0.2708613844E-02   0.0000000000E+00  -0.5600494719E-02
   0.1590083255E+00   0.2971867902E-01   0.7719349596E-04  -0.8855595990E-06   0.0000000000E+00   0.0000000000E+00   0.5659680113E-02  -0.3107497228E-02   0.0000000000E+00  -0.4253928153E-02
   0.3213195499E+00   0.2216496615E+00   0.9180569076E-04  -0.8434266564E-05   0.0000000000E+00   0.0000000000E+00   0.2918000425E-01   0.5271044427E-04   0.0000000000E+00  -0.2086854941E-03
   0.6172799284E-01   0.1339232593E+00   0.2454004014E-04  -0.2886620605E-04   0.0000000000E+00   0.0000000000E+00   0.3655221497E-01   0.1130743115E-02   0.0000000000E+00   0.2403490264E-02
   0.1343232756E+00   0.1572112325E+00   0.4471537560E-04  -0.1622024754E-04   0.0000000000E+00   0.0000000000E+00   0.3045648484E-01  -0.3547214737E-02   0.0000000000E+00   0.8151885463E-03
   0.5973255349E-01   0.1748636652E+00   0.1846333533E-04  -0.3313733757E-04   0.0000000000E+00   0.0000000000E+00   0.3200528080E-01   0.2502476452E-03   0.0000000000E+00   0.3932709406E-02
   0.5787392886E-01   0.1609757878E+00   0.1918888245E-04  -0.3229840852E-04   0.0000000000E+00   0.0000000000E+00   0.3488969891E-01   0.1745438234E-02   0.0000000000E+00   0.3301361458E-02
   0.9913664331E-01   0.1707850698E+00   0.3153473288E-04  -0.2463094714E-04   0.0000000000E+00   0.0000000000E+00   0.3169059087E-01  -0.2598521689E-02   0.0000000000E+00   0.2476635973E-02
   0.2248249559E+00   0.1892284429E+00   0.6658460846E-04  -0.9181829417E-05   0.0000000000E+00   0.0000000000E+00   0.2837155548E-01  -0.3413392730E-03   0.0000000000E+00  -0.1007305690E-02
   0.3019686161E+00   0.1833810992E+00   0.8763812014E-04  -0.5703076702E-05   0.0000000000E+00   0.0000000000E+00   0.2526555158E-01   0.7273478942E-03   0.0000000000E+00  -0.9517319706E-03
   0.2845526014E+00   0.1218672659E+00   0.8665518099E-04  -0.2279639938E-05   0.0000000000E+00   0.0000000000E+00   0.2021888124E-01   0.1858684667E-02   0.0000000000E+00  -0.1769445572E-02
   0.2826290314E+00   0.1422054399E+00   0.8502194440E-04  -0.3378137315E-05   0.0000000000E+00   0.0000000000E+00   0.2287247934E-01   0.9224535736E-03   0.0000000000E+00  -0.1818126664E-02
   0.2617571725E+00   0.4602383636E-01   0.8724599702E-04  -0.2402639004E-06   0.0000000000E+00   0.0000000000E+00   0.1417786312E-01   0.3409665677E-02   0.0000000000E+00  -0.1480480159E-02
   0.2441437324E+00   0.1875013797E+00   0.7206667727E-04  -0.7888781671E-05   0.0000000000E+00   0.0000000000E+00   0.2652948772E-01  -0.1114673524E-03   0.0000000000E+00  -0.1491005653E-02
   0.6799047338E-01   0.2230994746E+00   0.1671903255E-04  -0.3564241368E-04   0.0000000000E+00   0.0000000000E+00   0.2582190427E-01   0.2564482599E-03   0.0000000000E+00   0.2529407392E-02
   0.3017419474E+00   0.1635184270E+00   0.8839119063E-04  -0.4348751530E-05   0.0000000000E+00   0.0000000000E+00   0.2453537919E-01   0.8184525334E-03   0.0000000000E+00  -0.1221418947E-02
   0.1867952732E+00   0.2076979414E+00   0.5356373607E-04  -0.1430656692E-04   0.0000000000E+00   0.0000000000E+00   0.2961032461E-01  -0.5641024150E-03   0.0000000000E+00  -0.3807198738E-03
   0.1824994248E+00   0.4902309628E-01   0.7680128473E-04  -0.1043241516E-05   0.0000000000E+00   0.0000000000E+00   0.1007504109E-01   0.5049866482E-04   0.0000000000E+00  -0.4030454080E-02
   0.1485189520E+00   0.2077164289E+00   0.4200878990E-04  -0.1952659884E-04   0.0000000000E+00   0.0000000000E+00   0.3002700077E-01  -0.9435985836E-03   0.0000000000E+00   0.7870961200E-03
   0.1091298656E+00   0.6020973526E-01   0.6500371419E-04  -0.8239463803E-05   0.0000000000E+00   0.0000000000E+00   0.8249906787E-02  -0.7398158622E-02   0.0000000000E+00  -0.5440990101E-02
   0.2639210646E+00   0.2041939591E+00   0.7628386155E-04  -0.8375946393E-05   0.0000000000E+00   0.0000000000E+00   0.2793343662E-01   0.1552303617E-03   0.0000000000E+00  -0.9312538159E-03
   0.1473216856E+00   0.7129481626E-01   0.6749037761E-04  -0.4107935604E-05   0.0000000000E+00   0.0000000000E+00   0.1407231840E-01  -0.4848650533E-02   0.0000000000E+00  -0.6778559399E-02
   0.1099279333E+00   0.2062395121E+00   0.3054900617E-04  -0.2625017984E-04   0.0000000000E+00   0.0000000000E+00   0.2996740539E-01  -0.1264926483E-02   0.0000000000E+00   0.2820743293E-02
   0.7544726403E-01   0.1791057959E+00   0.2301560928E-04  -0.3043558796E-04   0.0000000000E+00   0.0000000000E+00   0.3205322596E-01  -0.6961064425E-03   0.0000000000E+00   0.3720598313E-02
   0.8902602335E-01   0.2044776076E+00   0.2455207169E-04  -0.3015718623E-04   0.0000000000E+00   0.0000000000E+00   0.2852348830E-01  -0.3278660368E-03   0.0000000000E+00   0.3095615219E-02
   0.1218693843E+00   0.4405494385E-01   0.7158804979E-04  -0.4352826706E-05   0.0000000000E+00   0.0000000000E+00   0.4586751909E-02  -0.6681006530E-02   0.0000000000E+00  -0.4646749085E-02
   0.2222797744E+00   0.4674834012E-01   0.8194364661E-04  -0.4517044601E-06   0.0000000000E+00   0.0000000000E+00   0.1439461873E-01   0.1746999149E-02   0.0000000000E+00  -0.3209588334E-02
   0.2668725230E+00   0.1016630822E+00   0.8451023304E-04  -0.1641943945E-05   0.0000000000E+00   0.0000000000E+00   0.2018078989E-01   0.1493845627E-02   0.0000000000E+00  -0.2244334860E-02
   0.2655716876E+00   0.8320145207E-01   0.8559635588E-04  -0.9994045909E-06   0.0000000000E+00   0.0000000000E+00   0.1687818113E-01   0.2504982343E-02   0.0000000000E+00  -0.2231158207E-02
   0.2446619417E+00   0.6479475422E-01   0.8360240679E-04  -0.6784295638E-06   0.0000000000E+00   0.0000000000E+00   0.1491455426E-01   0.2473915784E-02   0.0000000000E+00  -0.2532787121E-02
   0.1314415588E+00   0.1908561306E+00   0.3900456860E-04  -0.2065094133E-04   0.0000000000E+00   0.0000000000E+00   0.3017799185E-01  -0.1747305168E-02   0.0000000000E+00   0.2263356527E-02
   0.2637666859E+00   0.6459969159E-01   0.8651792970E-04  -0.5358109647E-06   0.0000000000E+00   0.0000000000E+00   0.1539477657E-01   0.2999135728E-02   0.0000000000E+00  -0.1960657759E-02
   0.1692398858E+00   0.1765620156E+00   0.5228780011E-04  -0.1330217445E-04   0.0000000000E+00   0.0000000000E+00   0.2832823107E-01  -0.1747638779E-02   0.0000000000E+00  -0.6220924457E-03
   0.7718764558E-01   0.1417964155E+00   0.2858913054E-04  -0.2605629818E-04   0.0000000000E+00   0.0000000000E+00   0.3440070023E-01  -0.8222990194E-03   0.0000000000E+00   0.2729656756E-02
   0.9741512704E-01   0.7630633020E-01   0.5650743618E-04  -0.1277754591E-04   0.0000000000E+00   0.0000000000E+00   0.2048645360E-01  -0.5912227586E-02   0.0000000000E+00  -0.6504048624E-02
   0.6306325118E-01   0.1890407026E+00   0.1830170293E-04  -0.3372440886E-04   0.0000000000E+00   0.0000000000E+00   0.3101069295E-01   0.9996215554E-03   0.0000000000E+00   0.3884624819E-02
   0.2634205409E+00   0.1854783903E+00   0.7741562347E-04  -0.6879423274E-05   0.0000000000E+00   0.0000000000E+00   0.2595290217E-01   0.2369028260E-03   0.0000000000E+00  -0.1442552198E-02
   0.8463164740E-01   0.1288154293E+00   0.3393867562E-04  -0.2264043217E-04   0.0000000000E+00   0.0000000000E+00   0.3493741406E-01  -0.1873371215E-02   0.0000000000E+00  -0.3756157741E-03
   0.2617414570E+00   0.1660884680E+00   0.7840752578E-04  -0.5477483990E-05   0.0000000000E+00   0.0000000000E+00   0.2555971786E-01   0.1058198168E-03   0.0000000000E+00  -0.1669127366E-02
   0.2816913525E+00   0.1634242974E+00   0.8352372826E-04  -0.4723883737E-05   0.0000000000E+00   0.0000000000E+00   0.2376953905E-01   0.8471878264E-03   0.0000000000E+00  -0.1531754080E-02
   0.2673542472E+00   0.1199228092E+00   0.8324294337E-04  -0.2466015339E-05   0.0000000000E+00   0.0000000000E+00   0.2018078989E-01   0.1493845627E-02   0.0000000000E+00  -0.2244334860E-02
   0.1870497067E+00   0.1920021539E+00   0.5550099862E-04  -0.1276032854E-04   0.0000000000E+00   0.0000000000E+00   0.2861461218E-01  -0.9246061939E-03   0.0000000000E+00  -0.6968895789E-03
   0.2563505300E+00   0.1496278983E+00   0.7841501871E-04  -0.4506713700E-05   0.0000000000E+00   0.0000000000E+00   0.2334241961E-01   0.3875795228E-03   0.0000000000E+00  -0.2153998048E-02
   0.2058077951E+00   0.1908977725E+00   0.6104387674E-04  -0.1080850412E-04   0.0000000000E+00   0.0000000000E+00   0.2861461218E-01  -0.9246061939E-03   0.0000000000E+00  -0.6968895789E-03
   0.1127415508E+00   0.1896177957E+00   0.3342355479E-04  -0.2400002519E-04   0.0000000000E+00   0.0000000000E+00   0.3044277251E-01  -0.1434623151E-02   0.0000000000E+00   0.3136793958E-02
   0.1860836514E+00   0.1634711758E+00   0.5887793760E-04  -0.1003319591E-04   0.0000000000E+00   0.0000000000E+00   0.2674045811E-01  -0.2036072703E-02   0.0000000000E+00  -0.1676895850E-02
   0.2044605679E+00   0.1747926165E+00   0.6251367277E-04  -0.9433504649E-05   0.0000000000E+00   0.0000000000E+00   0.2770566062E-01  -0.1281152175E-02   0.0000000000E+00  -0.1101210697E-02
   0.2399709478E+00   0.1536394434E+00   0.7409475136E-04  -0.5420112288E-05   0.0000000000E+00   0.0000000000E+00   0.2518928652E-01  -0.1057965018E-03   0.0000000000E+00  -0.1874108798E-02
   0.9093427668E-01   0.1505346132E+00   0.3179918315E-04  -0.2396284912E-04   0.0000000000E+00   0.0000000000E+00   0.3285955282E-01  -0.3205983964E-02   0.0000000000E+00   0.1481961370E-02
   0.1513978719E+00   0.1752625991E+00   0.4718367067E-04  -0.1563613389E-04   0.0000000000E+00   0.0000000000E+00   0.2966860874E-01  -0.2580410987E-02   0.0000000000E+00   0.7768149026E-03
   0.1636326450E+00   0.4813694933E-01   0.7477647041E-04  -0.1535971664E-05   0.0000000000E+00   0.0000000000E+00   0.1247215846E-01  -0.2081429481E-02   0.0000000000E+00  -0.5739111832E-02
   0.1349190156E+00   0.5881866548E-01   0.6890514127E-04  -0.4123772494E-05   0.0000000000E+00   0.0000000000E+00   0.1407231840E-01  -0.4848650533E-02   0.0000000000E+00  -0.6778559399E-02
   0.1882362325E+00   0.6978605688E-01   0.7442803793E-04  -0.1853367431E-05   0.0000000000E+00   0.0000000000E+00   0.1709518630E-01  -0.9834566790E-03   0.0000000000E+00  -0.4828373030E-02
   0.2068416850E+00   0.6707396770E-01   0.7767270983E-04  -0.1259695518E-05   0.0000000000E+00   0.0000000000E+00   0.1658823394E-01   0.2227962168E-03   0.0000000000E+00  -0.4167275005E-02
   0.2292094685E+00   0.8417815865E-01   0.7928646308E-04  -0.1542645019E-05   0.0000000000E+00   0.0000000000E+00   0.1652600446E-01   0.1202606371E-02   0.0000000000E+00  -0.3472104909E-02
   0.2167043931E+00   0.1045099632E+00   0.7449713135E-04  -0.2959502055E-05   0.0000000000E+00   0.0000000000E+00   0.1903433180E-01  -0.1538109558E-03   0.0000000000E+00  -0.3880511821E-02
   0.8633059807E-01   0.9167511492E-01   0.4702786708E-04  -0.1746865694E-04   0.0000000000E+00   0.0000000000E+00   0.3044943453E-01  -0.2301737023E-02   0.0000000000E+00  -0.5483058274E-02
   0.1593037891E+00   0.6189958304E-01   0.7154933601E-04  -0.2549761279E-05   0.0000000000E+00   0.0000000000E+00   0.1247215846E-01  -0.2081429481E-02   0.0000000000E+00  -0.5739111832E-02
   0.1230158339E+00   0.7127469937E-01   0.6325338038E-04  -0.6872506811E-05   0.0000000000E+00   0.0000000000E+00   0.1873132628E-01  -0.6226604486E-02   0.0000000000E+00  -0.6720129727E-02
   0.7619244423E-01   0.1055791559E+00   0.3807440774E-04  -0.2188647308E-04   0.0000000000E+00   0.0000000000E+00   0.3277486459E-01  -0.3183997572E-02   0.0000000000E+00  -0.2724201525E-02
   0.9399808299E-01   0.1160111249E+00   0.4055658730E-04  -0.1863113105E-04   0.0000000000E+00   0.0000000000E+00   0.3277486459E-01  -0.3183997572E-02   0.0000000000E+00  -0.2724201525E-02
   0.2233091867E+00   0.1720670700E+00   0.6793241127E-04  -0.7798763758E-05   0.0000000000E+00   0.0000000000E+00   0.2584144083E-01  -0.6681026491E-03   0.0000000000E+00  -0.1858005969E-02
   0.2509865589E+00   0.1191190864E+00   0.7991594233E-04  -0.2781821711E-05   0.0000000000E+00   0.0000000000E+00   0.2027509096E-01   0.9938316483E-03   0.0000000000E+00  -0.2693489934E-02
   0.2082590233E+00   0.1516522642E+00   0.6636533856E-04  -0.7045511294E-05   0.0000000000E+00   0.0000000000E+00   0.2470895988E-01  -0.1115816838E-02   0.0000000000E+00  -0.2431066518E-02
   0.9292501572E-01   0.1865922246E+00   0.2766202053E-04  -0.2763443713E-04   0.0000000000E+00   0.0000000000E+00   0.3081616263E-01  -0.6387126674E-03   0.0000000000E+00   0.3772180092E-02
   0.1867174215E+00   0.1770563720E+00   0.5726246770E-04  -0.1132525336E-04   0.0000000000E+00   0.0000000000E+00   0.2770566062E-01  -0.1281152175E-02   0.0000000000E+00  -0.1101210697E-02
   0.2425443679E+00   0.1701205775E+00   0.7317910309E-04  -0.6564712554E-05   0.0000000000E+00   0.0000000000E+00   0.2619305445E-01  -0.3301911063E-03   0.0000000000E+00  -0.1671346382E-02
   0.1334482623E+00   0.1744635015E+00   0.4183557696E-04  -0.1845703802E-04   0.0000000000E+00   0.0000000000E+00   0.3040562696E-01  -0.2610520118E-02   0.0000000000E+00   0.1717455985E-02
   0.1959410796E+00   0.8950618034E-01   0.7260284880E-04  -0.2772235441E-05   0.0000000000E+00   0.0000000000E+00   0.1709518630E-01  -0.9834566790E-03   0.0000000000E+00  -0.4828373030E-02
   0.1501196752E+00   0.1212779615E+00   0.5610120483E-04  -0.9339968419E-05   0.0000000000E+00   0.0000000000E+00   0.2676405128E-01  -0.4495365068E-02   0.0000000000E+00  -0.2732900425E-02
   0.1160341925E+00   0.1738270120E+00   0.3649803782E-04  -0.2158720198E-04   0.0000000000E+00   0.0000000000E+00   0.3040562696E-01  -0.2610520118E-02   0.0000000000E+00   0.1717455985E-02
   0.1532104331E+00   0.1583429572E+00   0.5023389970E-04  -0.1342601622E-04   0.0000000000E+00   0.0000000000E+00   0.2910778134E-01  -0.3444425868E-02   0.0000000000E+00  -0.2760630905E-03
   0.1176107181E+00   0.1591020265E+00   0.3916334623E-04  -0.1948677646E-04   0.0000000000E+00   0.0000000000E+00   0.3045648484E-01  -0.3547214737E-02   0.0000000000E+00   0.8151885463E-03
   0.1444631685E+00   0.1344117602E+00   0.5184322146E-04  -0.1173601345E-04   0.0000000000E+00   0.0000000000E+00   0.2853736942E-01  -0.4267441768E-02   0.0000000000E+00  -0.1336550663E-02
   0.2658775504E+00   0.1379544056E+00   0.8155242546E-04  -0.3491354188E-05   0.0000000000E+00   0.0000000000E+00   0.2347113303E-01   0.6315797054E-03   0.0000000000E+00  -0.1906840568E-02
   0.1816700599E+00   0.9468834898E-01   0.6893013696E-04  -0.3828821140E-05   0.0000000000E+00   0.0000000000E+00   0.1836065117E-01  -0.2349642022E-02   0.0000000000E+00  -0.5293248409E-02
   0.1481360597E+00   0.9104779704E-01   0.6262817447E-04  -0.6012938037E-05   0.0000000000E+00   0.0000000000E+00   0.2119440462E-01  -0.4385235620E-02   0.0000000000E+00  -0.5450204854E-02
   0.1191435239E+00   0.1241397241E+00   0.4647035414E-04  -0.1446694293E-04   0.0000000000E+00   0.0000000000E+00   0.3011249937E-01  -0.5246554850E-02   0.0000000000E+00  -0.1898839191E-02
   0.2119705246E+00   0.8614725555E-01   0.7602382925E-04  -0.2038429535E-05   0.0000000000E+00   0.0000000000E+00   0.1658823394E-01   0.2227962168E-03   0.0000000000E+00  -0.4167275005E-02
   0.2374989332E+00   0.1372103349E+00   0.7517045817E-04  -0.4340889309E-05   0.0000000000E+00   0.0000000000E+00   0.2284686600E-01   0.2763908954E-03   0.0000000000E+00  -0.2404370781E-02
   0.2062953466E+00   0.1242891833E+00   0.6954859570E-04  -0.4853199136E-05   0.0000000000E+00   0.0000000000E+00   0.2350546512E-01  -0.1200010559E-02   0.0000000000E+00  -0.2949311888E-02
   0.1112460231E+00   0.1477644771E+00   0.3902038200E-04  -0.1926792095E-04   0.0000000000E+00   0.0000000000E+00   0.3088613848E-01  -0.3820814927E-02   0.0000000000E+00   0.8163593310E-03
   0.2519291372E+00   0.1354143266E+00   0.7863266111E-04  -0.3719908726E-05   0.0000000000E+00   0.0000000000E+00   0.2193458515E-01   0.6321096321E-03   0.0000000000E+00  -0.2437326568E-02
   0.1040805190E+00   0.1576470221E+00   0.3502172596E-04  -0.2201917737E-04   0.0000000000E+00   0.0000000000E+00   0.3132199609E-01  -0.3108732092E-02   0.0000000000E+00   0.1817958407E-02
   0.2228580113E+00   0.1385334665E+00   0.7159179172E-04  -0.5091973156E-05   0.0000000000E+00   0.0000000000E+00   0.2436851503E-01  -0.5971492245E-03   0.0000000000E+00  -0.2362845428E-02
   0.1707533896E+00   0.1612581734E+00   0.5488135906E-04  -0.1147581341E-04   0.0000000000E+00   0.0000000000E+00   0.2743173308E-01  -0.2158556134E-02   0.0000000000E+00  -0.1265340555E-02
   0.1747019033E+00   0.1458395010E+00   0.5833050481E-04  -0.9372758251E-05   0.0000000000E+00   0.0000000000E+00   0.2685011503E-01  -0.3161396499E-02   0.0000000000E+00  -0.1957456147E-02
   0.1545799971E+00   0.1085676654E+00   0.6001035229E-04  -0.7321323537E-05   0.0000000000E+00   0.0000000000E+00   0.2351462209E-01  -0.3960571918E-02   0.0000000000E+00  -0.4269273750E-02
   0.1778022387E+00   0.1298423349E+00   0.6176868986E-04  -0.7391597549E-05   0.0000000000E+00   0.0000000000E+00   0.2378197798E-01  -0.2858771054E-02   0.0000000000E+00  -0.3573828336E-02
   0.1124348678E+00   0.8588982418E-01   0.5599153413E-04  -0.1045459861E-04   0.0000000000E+00   0.0000000000E+00   0.2479411545E-01  -0.5937054213E-02   0.0000000000E+00  -0.5538232622E-02
   0.1887631455E+00   0.1115077863E+00   0.6750953057E-04  -0.4822209051E-05   0.0000000000E+00   0.0000000000E+00   0.2135624099E-01  -0.1620549261E-02   0.0000000000E+00  -0.4005878242E-02
   0.2020301996E+00   0.1076202857E+00   0.7102510501E-04  -0.3781769804E-05   0.0000000000E+00   0.0000000000E+00   0.2188005825E-01  -0.1218299283E-02   0.0000000000E+00  -0.3585448432E-02
   0.2204178872E+00   0.1219012660E+00   0.7305699034E-04  -0.3979012255E-05   0.0000000000E+00   0.0000000000E+00   0.2232275684E-01  -0.8241112176E-03   0.0000000000E+00  -0.3230455461E-02
   0.9853774324E-01   0.1386208430E+00   0.3655614070E-04  -0.2072270405E-04   0.0000000000E+00   0.0000000000E+00   0.3193754669E-01  -0.3852237940E-02   0.0000000000E+00   0.8477879437E-03
   0.2352754435E+00   0.1201112007E+00   0.7649827927E-04  -0.3295256590E-05   0.0000000000E+00   0.0000000000E+00   0.2124248640E-01   0.5300644795E-03   0.0000000000E+00  -0.2751936981E-02
   0.1979853617E+00   0.1422532112E+00   0.6499819808E-04  -0.6942541395E-05   0.0000000000E+00   0.0000000000E+00   0.2550131187E-01  -0.1925326905E-02   0.0000000000E+00  -0.2348891660E-02
   0.1034668653E+00   0.1015607227E+00   0.4811692395E-04  -0.1442249676E-04   0.0000000000E+00   0.0000000000E+00   0.2758407061E-01  -0.4661394604E-02   0.0000000000E+00  -0.5069808051E-02
   0.1274581837E+00   0.9480203391E-01   0.5675746352E-04  -0.9031241284E-05   0.0000000000E+00   0.0000000000E+00   0.2517881765E-01  -0.6035077966E-02   0.0000000000E+00  -0.4851874259E-02
   0.1578543998E+00   0.1417916545E+00   0.5432151187E-04  -0.1084998967E-04   0.0000000000E+00   0.0000000000E+00   0.2685011503E-01  -0.3161396499E-02   0.0000000000E+00  -0.1957456147E-02
   0.1711602042E+00   0.1026588252E+00   0.6516423814E-04  -0.5218950371E-05   0.0000000000E+00   0.0000000000E+00   0.2047695134E-01  -0.2756327501E-02   0.0000000000E+00  -0.4917588903E-02
   0.1597573653E+00   0.9630501222E-01   0.6395628979E-04  -0.5499177674E-05   0.0000000000E+00   0.0000000000E+00   0.1966363344E-01  -0.3596284258E-02   0.0000000000E+00  -0.5539298826E-02
   0.1662199719E+00   0.1136256608E+00   0.6182889115E-04  -0.6741153853E-05   0.0000000000E+00   0.0000000000E+00   0.2439707343E-01  -0.3685780105E-02   0.0000000000E+00  -0.3676180494E-02
   0.1633036103E+00   0.1268299086E+00   0.5853231165E-04  -0.8483122510E-05   0.0000000000E+00   0.0000000000E+00   0.2439707343E-01  -0.3685780105E-02   0.0000000000E+00  -0.3676180494E-02
   0.1366125243E+00   0.1149866880E+00   0.5380206527E-04  -0.1033628116E-04   0.0000000000E+00   0.0000000000E+00   0.2730356877E-01  -0.5233295960E-02   0.0000000000E+00  -0.2956116877E-02
   0.1329629335E+00   0.1410718082E+00   0.4712904748E-04  -0.1437153875E-04   0.0000000000E+00   0.0000000000E+00   0.2886642123E-01  -0.4787008553E-02   0.0000000000E+00  -0.1534432070E-02
   0.1330866432E+00   0.1276536807E+00   0.4989215886E-04  -0.1256177419E-04   0.0000000000E+00   0.0000000000E+00   0.2886642123E-01  -0.4787008553E-02   0.0000000000E+00  -0.1534432070E-02
   0.1208106672E+00   0.1092933163E+00   0.5079317665E-04  -0.1207672126E-04   0.0000000000E+00   0.0000000000E+00   0.2656082700E-01  -0.5629077708E-02   0.0000000000E+00  -0.3813529595E-02
   0.1363803883E+00   0.8187568167E-01   0.6257081608E-04  -0.6271657695E-05   0.0000000000E+00   0.0000000000E+00   0.1777884543E-01  -0.5948581663E-02   0.0000000000E+00  -0.6788618050E-02
   0.1416476975E+00   0.1024014968E+00   0.5823451714E-04  -0.8057938354E-05   0.0000000000E+00   0.0000000000E+00   0.2361978633E-01  -0.4789288108E-02   0.0000000000E+00  -0.4672128668E-02
   0.1581142427E+00   0.8360338705E-01   0.6649221212E-04  -0.4389020131E-05   0.0000000000E+00   0.0000000000E+00   0.1966363344E-01  -0.3596284258E-02   0.0000000000E+00  -0.5539298826E-02
   0.1771298957E+00   0.1148130156E+00   0.6423994036E-04  -0.5941176202E-05   0.0000000000E+00   0.0000000000E+00   0.2345020266E-01  -0.3221242233E-02   0.0000000000E+00  -0.3938551265E-02
   0.1070815188E+00   0.1277517919E+00   0.4178239453E-04  -0.1736660267E-04   0.0000000000E+00   0.0000000000E+00   0.3194599798E-01  -0.4386755818E-02   0.0000000000E+00  -0.1588147342E-03
   0.1182514590E+00   0.1376020045E+00   0.4322348921E-04  -0.1651824005E-04   0.0000000000E+00   0.0000000000E+00   0.3087340238E-01  -0.4235779816E-02   0.0000000000E+00   0.2092227446E-03
   0.1923968266E+00   0.1281035692E+00   0.6569109078E-04  -0.6057343547E-05   0.0000000000E+00   0.0000000000E+00   0.2436238658E-01  -0.2380579271E-02   0.0000000000E+00  -0.3086844559E-02
   0.2094970978E+00   0.1388943693E+00   0.6832505444E-04  -0.5865920099E-05   0.0000000000E+00   0.0000000000E+00   0.2470895988E-01  -0.1115816838E-02   0.0000000000E+00  -0.2431066518E-02
   0.1993812438E+00   0.1610443899E+00   0.6283103013E-04  -0.8578123503E-05   0.0000000000E+00   0.0000000000E+00   0.2617461768E-01  -0.1672427068E-02   0.0000000000E+00  -0.1906543913E-02
   0.1892186072E+00   0.1514047451E+00   0.6141216391E-04  -0.8535428891E-05   0.0000000000E+00   0.0000000000E+00   0.2674045811E-01  -0.2036072703E-02   0.0000000000E+00  -0.1676895850E-02
           1           5         812           8
           5           2           6         812
         812           6           3           7
           8         812           7           4
           9          13         813          16
          13          10          14         813
         813          14          11          15
          16         813          15          12
          17          21         814          24
          21          18          22         814
         814          22          19          23
          24         814          23          20
          25          29         815          32
          29          26          30         815
         815          30          27          31
          32         815          31          28
          33          37         816          40
          37          34          38         816
         816          38          35          39
          40         816          39          36
          41          45         817          48
          45          42          46         817
         817          46          43          47
          48         817          47          44
          49          53         818          56
          53          50          54         818
         818          54          51          55
          56         818          55          52
          57          61         819          64
          61          58          62         819
         819          62          59          63
          64         819          63          60
          65          67         820          69
          67          66          68         820
         820          68           4           7
          69         820           7           3
           2           5         821          74
           5           1          72         821
         821          72          70          73
          74         821          73          71
          75          79         822          82
          79          76          80         822
         822          80          77          81
          82         822          81          78
          83          85         823          87
          85          84          86         823
         823          86          71          73
          87         823          73          70
          88          91         824          94
          91          83          92         824
         824          92          89          93
          94         824          93          90
          95          98         825         101
          98          17          99         825
         825          99          96         100
         101         825         100          97
          83          87         826          92
          87          70         102         826
         826         102          77         103
          92         826         103          89
         104         108         827         111
         108         105         109         827
         827         109         106         110
         111         827         110         107
         107         110         828         116
         110         106         114         828
         828         114         112         115
         116         828         115         113
         117         121         829         124
         121         118         122         829
         829         122         119         123
         124         829         123         120
         118         127         830         122
         127         125         128         830
         830         128         126         129
         122         830         129         119
         130         134         831         137
         134         131         135         831
         831         135         132         136
         137         831         136         133
         138         142         832         145
         142         139         143         832
         832         143         140         144
         145         832         144         141
         146         150         833         153
         150         147         151         833
         833         151         148         152
         153         833         152         149
         154         156         834         158
         156         155         157         834
         834         157          49          56
         158         834          56          52
          51         161         835          55
         161         159         162         835
         835         162         160         163
          55         835         163          52
         164         166         836         168
         166         165         167         836
         836         167          44          47
         168         836          47          43
         169         173         837         176
         173         170         174         837
         837         174         171         175
         176         837         175         172
         177         181         838         184
         181         178         182         838
         838         182         179         183
         184         838         183         180
         185         189         839         192
         189         186         190         839
         839         190         187         191
         192         839         191         188
         188         191         840         196
         191         187         194         840
         840         194         131         195
         196         840         195         193
         130         198         841         134
         198         197         199         841
         841         199         193         195
         134         841         195         131
         197         198         842         203
         198         130         201         842
         842         201         125         202
         203         842         202         200
         118         205         843         127
         205         204         206         843
         843         206         200         202
         127         843         202         125
         207         208         844         210
         208         117         209         844
         844         209         113         115
         210         844         115         112
          95         212         845          98
         212         211         213         845
         845         213          18          21
          98         845          21          17
         214         218         846         221
         218         215         219         846
         846         219         216         220
         221         846         220         217
          20         223         847         225
         223         222         224         847
         847         224         215         218
         225         847         218         214
         214         221         848         229
         221         217         227         848
         848         227         226         228
         229         848         228          96
         230         232         849         234
         232         231         233         849
         849         233          59          62
         234         849          62          58
         235         237         850         239
         237         230         234         850
         850         234          58         238
         239         850         238         236
         154         243         851         246
         243         240         244         851
         851         244         241         245
         246         851         245         242
         247         251         852         254
         251         248         252         852
         852         252         249         253
         254         852         253         250
          60          63         853         259
          63          59         257         853
         853         257         255         258
         259         853         258         256
         260         264         854         267
         264         261         265         854
         854         265         262         266
         267         854         266         263
         268         272         855         275
         272         269         273         855
         855         273         270         274
         275         855         274         271
         269         276         856         273
         276         177         184         856
         856         184         180         277
         273         856         277         270
         170         280         857         174
         280         278         281         857
         857         281         279         282
         174         857         282         171
         283         287         858         290
         287         284         288         858
         858         288         285         289
         290         858         289         286
         291         292         859         293
         292         222         223         859
         859         223          20          23
         293         859          23          19
         294         295         860         297
         295          88         296         860
         860         296         222         292
         297         860         292         291
          66         299         861          68
         299         286         300         861
         861         300         298         301
          68         861         301           4
          84          85         862         302
          85          83          91         862
         862          91          88         295
         302         862         295         294
          70          72         863         102
          72           1         303         863
         863         303          78          81
         102         863          81          77
         222         296         864         224
         296          88          94         864
         864          94          90         304
         224         864         304         215
         305         307         865         309
         307         306         308         865
         865         308         242         245
         309         865         245         241
         310         312         866         314
         312         311         313         866
         866         313          25          32
         314         866          32          28
         315         317         867         319
         317         316         318         867
         867         318         138         145
         319         867         145         141
         204         205         868         320
         205         118         121         868
         868         121         117         208
         320         868         208         207
         120         321         869         124
         321         315         322         869
         869         322         113         209
         124         869         209         117
         104         111         870         324
         111         107         323         870
         870         323         141         144
         324         870         144         140
         325         329         871         332
         329         326         330         871
         871         330         327         331
         332         871         331         328
         326         329         872         334
         329         325         333         872
         872         333         172         175
         334         872         175         171
         186         189         873         336
         189         185         335         873
         873         335         328         331
         336         873         331         327
         337         341         874         344
         341         338         342         874
         874         342         339         343
         344         874         343         340
         345         347         875         349
         347          50          53         875
         875          53          49         348
         349         875         348         346
         350         353         876         356
         353         351         354         876
         876         354         285         355
         356         876         355         352
           9          16         877         360
          16          12         358         877
         877         358         357         359
         360         877         359         226
         298         300         878         361
         300         286         289         878
         878         289         285         354
         361         878         354         351
         362         364         879         366
         364         217         220         879
         879         220         216         365
         366         879         365         363
          97         100         880         367
         100          96         228         880
         880         228         226         359
         367         880         359         357
         125         201         881         128
         201         130         137         881
         881         137         133         368
         128         881         368         126
         236         370         882         373
         370         369         371         882
         882         371         250         372
         373         882         372         262
         131         194         883         135
         194         187         375         883
         883         375         374         376
         135         883         376         132
         186         378         884         190
         378         377         379         884
         884         379         374         375
         190         884         375         187
         271         380         885         275
         380         260         267         885
         885         267         263         381
         275         885         381         268
         139         142         886         383
         142         138         382         886
         886         382         306         307
         383         886         307         305
         338         341         887         385
         341         337         384         887
         887         384         178         181
         385         887         181         177
          17          24         888          99
          24          20         225         888
         888         225         214         229
          99         888         229          96
         231         387         889         233
         387         386         388         889
         889         388         255         257
         233         889         257          59
         389         391         890         393
         391         390         392         890
         890         392         284         287
         393         890         287         283
         263         395         891         381
         395         249         396         891
         891         396         394         397
         381         891         397         268
         261         398         892         265
         398         235         239         892
         892         239         236         373
         265         892         373         262
         399         403         893         406
         403         400         404         893
         893         404         401         405
         406         893         405         402
         177         276         894         385
         276         269         408         894
         894         408         407         409
         385         894         409         338
         410         412         895         414
         412         411         413         895
         895         413         327         330
         414         895         330         326
         410         415         896         412
         415         337         344         896
         896         344         340         416
         412         896         416         411
          10         417         897          14
         417         255         388         897
         897         388         386         418
          14         897         418          11
          76          79         898         423
          79          75         421         898
         898         421         419         422
         423         898         422         420
          78         424         899          82
         424         298         361         899
         899         361         351         425
          82         899         425          75
         390         391         900         427
         391         389         426         900
         900         426          36          39
         427         900          39          35
         165         430         901         167
         430         428         431         901
         901         431         429         432
         167         901         432          44
          34          37         902         434
          37          33         433         902
         902         433          41          48
         434         902          48          44
         435         437         903         439
         437         436         438         903
         903         438         165         166
         439         903         166         164
         298         424         904         301
         424          78         303         904
         904         303           1           8
         301         904           8           4
          52         163         905         158
         163         160         440         905
         905         440         240         243
         158         905         243         154
         441         445         906         448
         445         442         446         906
         906         446         443         447
         448         906         447         444
         442         450         907         452
         450         449         451         907
         907         451         119         129
         452         907         129         126
         315         319         908         322
         319         141         323         908
         908         323         107         116
         322         908         116         113
         126         368         909         452
         368         133         453         909
         909         453         443         446
         452         909         446         442
         400         403         910         456
         403         399         454         910
         910         454         369         455
         456         910         455          57
         159         161         911         458
         161          51         457         911
         911         457         436         437
         458         911         437         435
         459         460         912         461
         460         436         457         912
         912         457          51          54
         461         912          54          50
         133         136         913         453
         136         132         463         913
         913         463         462         464
         453         913         464         443
         215         304         914         219
         304          90         466         914
         914         466         465         467
         219         914         467         216
         468         469         915         470
         469         465         466         915
         915         466          90          93
         470         915          93          89
          76         471         916          80
         471         468         470         916
         916         470          89         103
          80         916         103          77
         120         123         917         474
         123         119         451         917
         917         451         449         473
         474         917         473         472
         475         476         918         477
         476         462         463         918
         918         463         132         376
         477         918         376         374
         306         480         919         308
         480         478         481         919
         919         481         479         482
         308         919         482         242
         483         485         920         488
         485         155         486         920
         920         486         479         487
         488         920         487         484
         316         489         921         318
         489         478         480         921
         921         480         306         382
         318         921         382         138
         186         336         922         378
         336         327         413         922
         922         413         411         490
         378         922         490         377
         407         408         923         491
         408         269         272         923
         923         272         268         397
         491         923         397         394
         492         494         924         496
         494         493         495         924
         924         495         407         491
         496         924         491         394
         369         370         925         455
         370         236         238         925
         925         238          58          61
         455         925          61          57
         497         501         926         504
         501         498         502         926
         926         502         499         503
         504         926         503         500
         262         372         927         266
         372         250         253         927
         927         253         249         395
         266         927         395         263
         279         505         928         506
         505         178         384         928
         928         384         337         415
         506         928         415         410
         278         507         929         281
         507         179         182         929
         929         182         178         505
         281         929         505         279
          10         509         930         417
         509         508         510         930
         930         510         256         258
         417         930         258         255
         508         509         931         512
         509          10          13         931
         931          13           9         511
         512         931         511         362
         513         515         932         517
         515          60         259         932
         932         259         256         516
         517         932         516         514
         248         518         933         252
         518         492         496         933
         933         496         394         396
         252         933         396         249
         519         520         934         523
         520         346         521         934
         934         521         483         522
         523         934         522         310
         420         422         935         528
         422         419         526         935
         935         526         524         527
         528         935         527         525
         529         530         936         532
         530         401         404         936
         936         404         400         531
         532         936         531         513
         533         535         937         537
         535         534         536         937
         937         536         340         343
         537         937         343         339
         538         540         938         542
         540         539         541         938
         938         541         525         527
         542         938         527         524
         479         486         939         482
         486         155         156         939
         939         156         154         246
         482         939         246         242
         442         445         940         450
         445         441         544         940
         940         544         543         545
         450         940         545         449
         546         548         941         550
         548         547         549         941
         941         549          28          31
         550         941          31          27
         551         552         942         554
         552         478         489         942
         942         489         316         553
         554         942         553         472
         472         553         943         474
         553         316         317         943
         943         317         315         321
         474         943         321         120
         449         545         944         473
         545         543         555         944
         944         555         551         554
         473         944         554         472
         556         558         945         560
         558         557         559         945
         945         559         429         431
         560         945         431         428
         165         438         946         430
         438         436         460         946
         946         460         459         561
         430         946         561         428
         279         506         947         282
         506         410         414         947
         947         414         326         334
         282         947         334         171
          75         425         948         421
         425         351         353         948
         948         353         350         562
         421         948         562         419
         563         567         949         570
         567         564         568         949
         949         568         565         569
         570         949         569         566
         571         572         950         574
         572         465         469         950
         950         469         468         573
         574         950         573         525
         420         528         951         423
         528         525         573         951
         951         573         468         471
         423         951         471          76
         575         577         952         579
         577         576         578         952
         952         578         539         540
         579         952         540         538
         248         582         953         518
         582         580         583         953
         953         583         581         584
         518         953         584         492
         377         490         954         585
         490         411         416         954
         954         416         340         536
         585         954         536         534
         443         464         955         447
         464         462         587         955
         955         587         586         588
         447         955         588         444
         586         587         956         591
         587         462         476         956
         956         476         475         590
         591         956         590         589
         478         552         957         481
         552         551         592         957
         957         592         484         487
         481         957         487         479
         593         594         958         595
         594         493         494         958
         958         494         492         584
         595         958         584         581
         217         364         959         227
         364         362         511         959
         959         511           9         360
         227         959         360         226
         475         477         960         596
         477         374         379         960
         960         379         377         585
         596         960         585         534
         250         371         961         254
         371         369         454         961
         961         454         399         597
         254         961         597         247
          50         347         962         461
         347         345         598         962
         962         598         498         599
         461         962         599         459
          57          64         963         456
          64          60         515         963
         963         515         513         531
         456         963         531         400
         600         602         964         604
         602         601         603         964
         964         603          35          38
         604         964          38          34
         338         409         965         342
         409         407         495         965
         965         495         493         605
         342         965         605         339
         557         608         966         611
         608         497         609         966
         966         609         606         610
         611         966         610         607
         514         516         967         614
         516         256         510         967
         967         510         508         613
         614         967         613         612
         539         615         968         541
         615         363         616         968
         968         616         571         574
         541         968         574         525
         362         366         969         512
         366         363         617         969
         969         617         612         613
         512         969         613         508
         429         618         970         432
         618         600         604         970
         970         604          34         434
         432         970         434          44
         346         348         971         521
         348          49         157         971
         971         157         155         485
         521         971         485         483
          26          29         972         620
          29          25         619         972
         972         619         441         448
         620         972         448         444
         543         544         973         621
         544         441         619         973
         973         619          25         313
         621         973         313         311
         484         622         974         488
         622         311         312         974
         974         312         310         522
         488         974         522         483
         623         624         975         625
         624         529         532         975
         975         532         513         517
         625         975         517         514
         551         555         976         592
         555         543         621         976
         976         621         311         622
         592         976         622         484
         402         405         977         630
         405         401         628         977
         977         628         626         629
         630         977         629         627
         419         562         978         526
         562         350         632         978
         978         632         631         633
         526         978         633         524
         634         635         979         636
         635         390         427         979
         979         427          35         603
         636         979         603         601
         571         616         980         572
         616         363         365         980
         980         365         216         467
         572         980         467         465
         533         537         981         637
         537         339         605         981
         981         605         493         594
         637         981         594         593
         352         639         982         356
         639         638         640         982
         982         640         631         632
         356         982         632         350
         641         642         983         644
         642         589         643         983
         983         643         533         637
         644         983         637         593
         475         596         984         590
         596         534         535         984
         984         535         533         643
         590         984         643         589
         444         588         985         620
         588         586         646         985
         985         646         645         647
         620         985         647          26
         247         597         986         650
         597         399         406         986
         986         406         402         649
         650         986         649         648
         651         653         987         655
         653         589         642         987
         987         642         641         654
         655         987         654         652
         648         656         988         650
         656         580         582         988
         988         582         248         251
         650         988         251         247
         576         657         989         658
         657         623         625         989
         989         625         514         614
         658         989         614         612
         659         662         990         665
         662         660         663         990
         990         663         627         664
         665         990         664         661
         660         666         991         668
         666         146         667         991
         991         667         580         656
         668         991         656         648
         149         152         992         670
         152         148         669         992
         992         669         652         654
         670         992         654         641
         671         672         993         673
         672         538         542         993
         993         542         524         633
         673         993         633         631
         565         674         994         675
         674         626         628         994
         994         628         401         530
         675         994         530         529
         556         560         995         676
         560         428         561         995
         995         561         459         599
         676         995         599         498
         607         677         996         611
         677         600         618         996
         996         618         429         559
         611         996         559         557
         499         502         997         680
         502         498         598         997
         997         598         345         679
         680         997         679         678
         678         679         998         681
         679         345         349         998
         998         349         346         520
         681         998         520         519
         310         314         999         523
         314          28         549         999
         999         549         547         682
         523         999         682         519
         547         548        1000         687
         548         546         685        1000
        1000         685         683         686
         687        1000         686         684
         284         392        1001         690
         392         390         635        1001
        1001         635         634         689
         690        1001         689         688
         498         501        1002         676
         501         497         608        1002
        1002         608         557         558
         676        1002         558         556
         601         602        1003         693
         602         600         677        1003
        1003         677         607         692
         693        1003         692         691
         352         355        1004         694
         355         285         288        1004
        1004         288         284         690
         694        1004         690         688
         688         696        1005         694
         696         695         697        1005
        1005         697         638         639
         694        1005         639         352
         149         698        1006         153
         698         581         583        1006
        1006         583         580         667
         153        1006         667         146
          26         647        1007          30
         647         645         700        1007
        1007         700         699         701
          30        1007         701          27
         147         150        1008         706
         150         146         704        1008
        1008         704         702         705
         706        1008         705         703
         539         578        1009         615
         578         576         658        1009
        1009         658         612         617
         615        1009         617         363
         648         649        1010         668
         649         402         630        1010
        1010         630         627         663
         668        1010         663         660
         149         670        1011         698
         670         641         644        1011
        1011         644         593         595
         698        1011         595         581
         566         569        1012         707
         569         565         675        1012
        1012         675         529         624
         707        1012         624         623
         678         709        1013         680
         709         684         710        1013
        1013         710         708         711
         680        1013         711         499
         712         716        1014         719
         716         713         717        1014
        1014         717         714         718
         719        1014         718         715
         623         657        1015         707
         657         576         577        1015
        1015         577         575         720
         707        1015         720         566
         564         722        1016         568
         722         721         723        1016
        1016         723         626         674
         568        1016         674         565
         566         720        1017         570
         720         575         725        1017
        1017         725         724         726
         570        1017         726         563
         727         728        1018         730
         728         712         719        1018
        1018         719         715         729
         730        1018         729         564
         651         731        1019         653
         731         645         646        1019
        1019         646         586         591
         653        1019         591         589
         499         711        1020         503
         711         708         733        1020
        1020         733         732         734
         503        1020         734         500
         735         738        1021         741
         738         736         739        1021
        1021         739         606         740
         741        1021         740         737
         695         745        1022         748
         745         742         746        1022
        1022         746         743         747
         748        1022         747         744
         519         682        1023         681
         682         547         687        1023
        1023         687         684         709
         681        1023         709         678
         652         669        1024         752
         669         148         750        1024
        1024         750         749         751
         752        1024         751         699
         753         756        1025         759
         756         754         757        1025
        1025         757         683         758
         759        1025         758         755
         724         761        1026         726
         761         671         762        1026
        1026         762         760         763
         726        1026         763         563
         645         731        1027         700
         731         651         655        1027
        1027         655         652         752
         700        1027         752         699
         575         579        1028         725
         579         538         672        1028
        1028         672         671         761
         725        1028         761         724
         147         764        1029         151
         764         755         765        1029
        1029         765         749         750
         151        1029         750         148
         627         629        1030         664
         629         626         723        1030
        1030         723         721         766
         664        1030         766         661
         767         769        1031         771
         769         768         770        1031
        1031         770         661         766
         771        1031         766         721
         714         717        1032         775
         717         713         773        1032
        1032         773         735         774
         775        1032         774         772
         776         778        1033         780
         778         768         769        1033
        1033         769         767         779
         780        1033         779         777
         634         636        1034         783
         636         601         693        1034
        1034         693         691         782
         783        1034         782         781
         754         784        1035         786
         784         776         785        1035
        1035         785         732         733
         786        1035         733         708
         754         786        1036         757
         786         708         710        1036
        1036         710         684         686
         757        1036         686         683
         683         685        1037         758
         685         546         787        1037
        1037         787         749         765
         758        1037         765         755
         671         673        1038         762
         673         631         640        1038
        1038         640         638         788
         762        1038         788         760
         699         751        1039         701
         751         749         787        1039
        1039         787         546         550
         701        1039         550          27
         768         789        1040         791
         789         753         790        1040
        1040         790         703         705
         791        1040         705         702
         634         783        1041         689
         783         781         792        1041
        1041         792         695         696
         689        1041         696         688
         781         782        1042         796
         782         691         794        1042
        1042         794         736         795
         796        1042         795         793
         721         722        1043         771
         722         564         729        1043
        1043         729         715         797
         771        1043         797         767
         732         799        1044         734
         799         798         800        1044
        1044         800         772         801
         734        1044         801         500
         500         801        1045         802
         801         772         774        1045
        1045         774         735         741
         802        1045         741         737
         714         775        1046         804
         775         772         800        1046
        1046         800         798         803
         804        1046         803         777
         777         779        1047         804
         779         767         797        1047
        1047         797         715         718
         804        1047         718         714
         742         805        1048         807
         805         793         806        1048
        1048         806         713         716
         807        1048         716         712
         727         730        1049         809
         730         564         567        1049
        1049         567         563         808
         809        1049         808         743
         743         746        1050         809
         746         742         807        1050
        1050         807         712         728
         809        1050         728         727
         742         745        1051         805
         745         695         792        1051
        1051         792         781         796
         805        1051         796         793
         607         610        1052         692
         610         606         739        1052
        1052         739         736         794
         692        1052         794         691
         713         806        1053         773
         806         793         795        1053
        1053         795         736         738
         773        1053         738         735
         737         740        1054         802
         740         606         609        1054
        1054         609         497         504
         802        1054         504         500
         798         799        1055         803
         799         732         785        1055
        1055         785         776         780
         803        1055         780         777
         638         697        1056         788
         697         695         748        1056
        1056         748         744         810
         788        1056         810         760
         760         810        1057         763
         810         744         747        1057
        1057         747         743         808
         763        1057         808         563
         776         784        1058         778
         784         754         756        1058
        1058         756         753         789
         778        1058         789         768
         703         790        1059         706
         790         753         759        1059
        1059         759         755         764
         706        1059         764         147
         702         704        1060         811
         704         146         666        1060
        1060         666         660         662
         811        1060         662         659
         661         770        1061         665
         770         768         791        1061
        1061         791         702         811
         665        1061         811         659
 VARIABLES = X,Y,DU1,DU2,U1,U2,S11,S22,S33,S12
 ZONE, T="0.2000D+01" F=FEPOINT, I= 1061 J= 1000
   0.1776973623E-01   0.1341638965E+00   0.7359764910E-05  -0.3694976194E-04   0.7359764910E-05  -0.3694976194E-04   0.8658608745E-01   0.1524376808E-01   0.0000000000E+00   0.1535930417E-02
   0.0000000000E+00   0.1332577886E+00   0.0000000000E+00  -0.3777570863E-04   0.0000000000E+00  -0.3777570863E-04   0.8945158599E-01   0.1743138654E-01   0.0000000000E+00   0.1523631642E-03
   0.0000000000E+00   0.1165934511E+00   0.0000000000E+00  -0.3660795950E-04   0.0000000000E+00  -0.3660795950E-04   0.1149323846E+00   0.1664178685E-01   0.0000000000E+00   0.1114229996E-03
   0.1917462949E-01   0.1162201181E+00   0.1024624290E-04  -0.3553493697E-04   0.1024624290E-04  -0.3553493697E-04   0.1078155453E+00   0.1546226953E-01   0.0000000000E+00  -0.4964762262E-02
   0.8884926322E-02   0.1337104267E+00   0.3708991077E-05  -0.3757465114E-04   0.3708991077E-05  -0.3757465114E-04   0.8832017957E-01   0.1671978709E-01   0.0000000000E+00   0.5956989359E-03
   0.0000000000E+00   0.1249254121E+00   0.0000000000E+00  -0.3729394253E-04   0.0000000000E+00  -0.3729394253E-04   0.9951197144E-01   0.1579383674E-01   0.0000000000E+00   0.9322004519E-04
   0.9587450341E-02   0.1164062553E+00   0.5190920534E-05  -0.3633583345E-04   0.5190920534E-05  -0.3633583345E-04   0.1113614748E+00   0.1589261221E-01   0.0000000000E+00  -0.2739485074E-02
   0.1847170239E-01   0.1251918485E+00   0.8562294589E-05  -0.3632376323E-04   0.8562294589E-05  -0.3632376323E-04   0.9547137328E-01   0.1461188782E-01   0.0000000000E+00  -0.1590861926E-02
   0.7803823252E-01   0.2318072630E+00   0.1836665797E-04  -0.3456999271E-04   0.1836665797E-04  -0.3456999271E-04   0.5279909300E-01  -0.3617191318E-04   0.0000000000E+00   0.4264877528E-02
   0.9782545775E-01   0.2319934156E+00   0.2372892436E-04  -0.3092322158E-04   0.2372892436E-04  -0.3092322158E-04   0.5605792928E-01  -0.2162407239E-03   0.0000000000E+00   0.3858817326E-02
   0.9726363403E-01   0.2499349495E+00   0.2070506333E-04  -0.3252522533E-04   0.2070506333E-04  -0.3252522533E-04   0.5488372199E-01   0.7948533212E-04   0.0000000000E+00   0.2197341747E-03
   0.7780904202E-01   0.2499279974E+00   0.1563070863E-04  -0.3600130767E-04   0.1563070863E-04  -0.3600130767E-04   0.4950315813E-01   0.1657615042E-04   0.0000000000E+00   0.2487513848E-03
   0.8793176144E-01   0.2319003022E+00   0.2100781830E-04  -0.3276889885E-04   0.2100781830E-04  -0.3276889885E-04   0.5442255897E-01  -0.1482738579E-03   0.0000000000E+00   0.3986740538E-02
   0.9754473574E-01   0.2409641594E+00   0.2231006950E-04  -0.3173180802E-04   0.2231006950E-04  -0.3173180802E-04   0.5533799814E-01  -0.9324637057E-04   0.0000000000E+00   0.2065898712E-02
   0.8753621556E-01   0.2499314264E+00   0.1810477757E-04  -0.3428679245E-04   0.1810477757E-04  -0.3428679245E-04   0.5220317286E-01   0.3305351712E-04   0.0000000000E+00   0.1187359527E-03
   0.7792384049E-01   0.2408676065E+00   0.1710214485E-04  -0.3529772590E-04   0.1710214485E-04  -0.3529772590E-04   0.5112979472E-01  -0.1698985580E-04   0.0000000000E+00   0.2284870255E-02
   0.1910647461E-01   0.2332381415E+00   0.4142004875E-05  -0.4234376313E-04   0.4142004875E-05  -0.4234376313E-04   0.4390257494E-01   0.5044855977E-03   0.0000000000E+00   0.1648619010E-02
   0.0000000000E+00   0.2332474982E+00   0.0000000000E+00  -0.4291789365E-04   0.0000000000E+00  -0.4291789365E-04   0.4318277075E-01   0.5596920014E-03   0.0000000000E+00   0.3602300438E-04
   0.0000000000E+00   0.2165829029E+00   0.0000000000E+00  -0.4188304632E-04   0.0000000000E+00  -0.4188304632E-04   0.4979207360E-01   0.2486625361E-02   0.0000000000E+00   0.2902605654E-04
   0.1854142251E-01   0.2166919644E+00   0.4563853798E-05  -0.4132432013E-04   0.4563853798E-05  -0.4132432013E-04   0.5019095557E-01   0.2246521926E-02   0.0000000000E+00   0.2525122199E-02
   0.9553220320E-02   0.2332425288E+00   0.2062509789E-05  -0.4277260514E-04   0.2062509789E-05  -0.4277260514E-04   0.4355757477E-01   0.6047101042E-03   0.0000000000E+00   0.8018114936E-03
   0.0000000000E+00   0.2249151910E+00   0.0000000000E+00  -0.4240148902E-04   0.0000000000E+00  -0.4240148902E-04   0.4673318301E-01   0.1602590053E-02   0.0000000000E+00   0.3143017110E-04
   0.9270701709E-02   0.2166371539E+00   0.2277159540E-05  -0.4174355686E-04   0.2277159540E-05  -0.4174355686E-04   0.5001072147E-01   0.2466222284E-02   0.0000000000E+00   0.1252514323E-02
   0.1882399611E-01   0.2249650493E+00   0.4377155925E-05  -0.4183582875E-04   0.4377155925E-05  -0.4183582875E-04   0.4726540875E-01   0.1446310104E-02   0.0000000000E+00   0.2075996100E-02
   0.2573724294E+00   0.9227145820E-01   0.8347168670E-04  -0.1406400188E-05   0.8347168670E-04  -0.1406400188E-05   0.3692363871E-01   0.3471910535E-02   0.0000000000E+00  -0.5169052094E-02
   0.2587657869E+00   0.1102816147E+00   0.8225444304E-04  -0.2157661385E-05   0.8225444304E-04  -0.2157661385E-05   0.4034517753E-01   0.2527770464E-02   0.0000000000E+00  -0.4965133614E-02
   0.2420132779E+00   0.1106715687E+00   0.7887295949E-04  -0.2550134710E-05   0.7887295949E-04  -0.2550134710E-05   0.4073459729E-01   0.1362955344E-02   0.0000000000E+00  -0.5833341587E-02
   0.2395405683E+00   0.9267788542E-01   0.8021613921E-04  -0.1716539788E-05   0.8021613921E-04  -0.1716539788E-05   0.3699946806E-01   0.2203344131E-02   0.0000000000E+00  -0.6266419452E-02
   0.2580691286E+00   0.1012765795E+00   0.8286582278E-04  -0.1760756974E-05   0.8286582278E-04  -0.1760756974E-05   0.3863828659E-01   0.2997454772E-02   0.0000000000E+00  -0.5069982358E-02
   0.2503895501E+00   0.1104766201E+00   0.8057253873E-04  -0.2339454431E-05   0.8057253873E-04  -0.2339454431E-05   0.4055018193E-01   0.1987663297E-02   0.0000000000E+00  -0.5386979867E-02
   0.2407769221E+00   0.1016747705E+00   0.7954056930E-04  -0.2113264344E-05   0.7954056930E-04  -0.2113264344E-05   0.3890429144E-01   0.1789442111E-02   0.0000000000E+00  -0.6051361239E-02
   0.2484565048E+00   0.9247470072E-01   0.8185038190E-04  -0.1548892412E-05   0.8185038190E-04  -0.1548892412E-05   0.3697652260E-01   0.2881679002E-02   0.0000000000E+00  -0.5699519319E-02
   0.9253121582E-01   0.3824595054E-01   0.7163195769E-04  -0.1119602853E-04   0.7163195769E-04  -0.1119602853E-04  -0.5702067851E-02  -0.2837640488E-01   0.0000000000E+00   0.1040715924E-01
   0.1081866353E+00   0.4608441561E-01   0.6988764262E-04  -0.7062945171E-05   0.6988764262E-04  -0.7062945171E-05   0.8452116997E-02  -0.1953405139E-01   0.0000000000E+00  -0.7187488256E-02
   0.9623512446E-01   0.6351822531E-01   0.6201403197E-04  -0.1198469315E-04   0.6201403197E-04  -0.1198469315E-04   0.2163569634E-01  -0.1081178868E-01   0.0000000000E+00  -0.1063811666E-01
   0.8327673443E-01   0.5552364420E-01   0.6488746696E-04  -0.1668975126E-04   0.6488746696E-04  -0.1668975126E-04   0.6481433882E-03  -0.1431767674E-02   0.0000000000E+00  -0.4034378593E-03
   0.1003587531E+00   0.4216593352E-01   0.7067556217E-04  -0.8755191829E-05   0.7067556217E-04  -0.8755191829E-05   0.3324032936E-02  -0.2098840952E-01   0.0000000000E+00  -0.5891384261E-04
   0.1022115354E+00   0.5480146985E-01   0.6628072374E-04  -0.9448173182E-05   0.6628072374E-04  -0.9448173182E-05   0.1430190424E-01  -0.1496820953E-01   0.0000000000E+00  -0.8762809991E-02
   0.8975545168E-01   0.5952167152E-01   0.6321368757E-04  -0.1396788883E-04   0.6321368757E-04  -0.1396788883E-04   0.1210048120E-01  -0.5962990396E-02   0.0000000000E+00  -0.6155047121E-02
   0.8832930458E-01   0.4711175567E-01   0.6858849145E-04  -0.1395936715E-04   0.6858849145E-04  -0.1395936715E-04  -0.3826114710E-02  -0.1464400424E-01   0.0000000000E+00   0.6307237800E-02
   0.9822988456E-01   0.1949783156E-01   0.7567898029E-04  -0.5600419084E-05   0.7567898029E-04  -0.5600419084E-05  -0.3543991121E-02  -0.4828014174E-01   0.0000000000E+00   0.8569890403E-02
   0.1001541427E+00   0.0000000000E+00   0.7707085351E-04   0.0000000000E+00   0.7707085351E-04   0.0000000000E+00  -0.1908321831E-02  -0.5867295021E-01   0.0000000000E+00   0.1699716353E-03
   0.1209893247E+00   0.0000000000E+00   0.7799735966E-04   0.0000000000E+00   0.7799735966E-04   0.0000000000E+00  -0.3845262364E-02  -0.2413693603E-01   0.0000000000E+00  -0.1667261464E-03
   0.1218822117E+00   0.2610691307E-01   0.7567385941E-04  -0.2697814797E-05   0.7567385941E-04  -0.2697814797E-05   0.1634051542E-02  -0.1874172873E-01   0.0000000000E+00  -0.6322742593E-02
   0.9967194431E-01   0.9796053984E-02   0.7673690310E-04  -0.2830347902E-05   0.7673690310E-04  -0.2830347902E-05  -0.3252917469E-02  -0.5525971147E-01   0.0000000000E+00   0.5309794091E-02
   0.1105720700E+00   0.0000000000E+00   0.7770197656E-04   0.0000000000E+00   0.7770197656E-04   0.0000000000E+00  -0.1984627968E-02  -0.3568478196E-01   0.0000000000E+00  -0.3077817316E-03
   0.1214369239E+00   0.1305332291E-01   0.7741146811E-04  -0.1415744244E-05   0.7741146811E-04  -0.1415744244E-05  -0.1735333513E-02  -0.2161857299E-01   0.0000000000E+00  -0.2883124345E-02
   0.1100562393E+00   0.2280301024E-01   0.7577363333E-04  -0.3830629336E-05   0.7577363333E-04  -0.3830629336E-05   0.5151389801E-04  -0.2976688591E-01   0.0000000000E+00  -0.2789879931E-04
   0.2107066970E+00   0.3763250248E-01   0.8127901609E-04  -0.3651602496E-06   0.8127901609E-04  -0.3651602496E-06   0.2392419709E-01   0.3693207612E-02   0.0000000000E+00  -0.5735213668E-02
   0.1906159213E+00   0.3838135395E-01   0.7900565755E-04  -0.5732244971E-06   0.7900565755E-04  -0.5732244971E-06   0.2149308567E-01   0.1477783870E-02   0.0000000000E+00  -0.7320980007E-02
   0.1868687100E+00   0.1901246184E-01   0.8027902417E-04  -0.2293806326E-06   0.8027902417E-04  -0.2293806326E-06   0.1704690861E-01   0.2269498009E-02   0.0000000000E+00  -0.4191520876E-02
   0.2073965379E+00   0.1873775682E-01   0.8212794506E-04  -0.1335403423E-06   0.8212794506E-04  -0.1335403423E-06   0.2069623023E-01   0.4429509762E-02   0.0000000000E+00  -0.3244361050E-02
   0.2006612699E+00   0.3800695728E-01   0.8012243390E-04  -0.4546623824E-06   0.8012243390E-04  -0.4546623824E-06   0.2273539500E-01   0.2648799368E-02   0.0000000000E+00  -0.6448795852E-02
   0.1887425194E+00   0.2869695190E-01   0.7974418929E-04  -0.3792984568E-06   0.7974418929E-04  -0.3792984568E-06   0.1902163666E-01   0.1805497494E-02   0.0000000000E+00  -0.5761329404E-02
   0.1971325539E+00   0.1887512519E-01   0.8116497154E-04  -0.1735055791E-06   0.8116497154E-04  -0.1735055791E-06   0.1891096349E-01   0.3430267294E-02   0.0000000000E+00  -0.3665646646E-02
   0.2090517655E+00   0.2818516608E-01   0.8178126921E-04  -0.2311590708E-06   0.8178126921E-04  -0.2311590708E-06   0.2210840426E-01   0.4016601969E-02   0.0000000000E+00  -0.4493563847E-02
   0.1575106843E+00   0.2159195324E+00   0.4366866765E-04  -0.1895781257E-04   0.4366866765E-04  -0.1895781257E-04   0.6066348728E-01  -0.1258400422E-02   0.0000000000E+00   0.1656083495E-02
   0.1565350376E+00   0.2325640945E+00   0.4118329481E-04  -0.2070375374E-04   0.4118329481E-04  -0.2070375374E-04   0.6231807765E-01  -0.2962592671E-03   0.0000000000E+00   0.1199535400E-02
   0.1370497061E+00   0.2325824788E+00   0.3516757350E-04  -0.2382758464E-04   0.3516757350E-04  -0.2382758464E-04   0.6098871056E-01  -0.3187122535E-03   0.0000000000E+00   0.2106144411E-02
   0.1382908007E+00   0.2157687387E+00   0.3784536415E-04  -0.2201715420E-04   0.3784536415E-04  -0.2201715420E-04   0.6019723699E-01  -0.1371093517E-02   0.0000000000E+00   0.3062604320E-02
   0.1570228980E+00   0.2242418046E+00   0.4244100899E-04  -0.1983519941E-04   0.4244100899E-04  -0.1983519941E-04   0.6137354625E-01  -0.8140791308E-03   0.0000000000E+00   0.1441367373E-02
   0.1467923465E+00   0.2325733897E+00   0.3815926091E-04  -0.2221764845E-04   0.3815926091E-04  -0.2221764845E-04   0.6164418031E-01  -0.3487372666E-03   0.0000000000E+00   0.1602671200E-02
   0.1376702981E+00   0.2241755916E+00   0.3653252874E-04  -0.2293069678E-04   0.3653252874E-04  -0.2293069678E-04   0.6047689435E-01  -0.8805599912E-03   0.0000000000E+00   0.2596881277E-02
   0.1479007246E+00   0.2158442286E+00   0.4075179788E-04  -0.2043718782E-04   0.4075179788E-04  -0.2043718782E-04   0.6042001287E-01  -0.1364312418E-02   0.0000000000E+00   0.2306327942E-02
   0.0000000000E+00   0.9993199433E-01   0.0000000000E+00  -0.3400333501E-04   0.0000000000E+00  -0.3400333501E-04   0.1623151857E+00   0.2647012170E-02   0.0000000000E+00   0.2942814826E-03
   0.1954043431E-01   0.9801237986E-01   0.1570095481E-04  -0.3307336991E-04   0.1570095481E-04  -0.3307336991E-04   0.1455196746E+00   0.5803483183E-02   0.0000000000E+00  -0.2718532693E-01
   0.9817510323E-02   0.9945089674E-01   0.7897821329E-05  -0.3378688074E-04   0.7897821329E-05  -0.3378688074E-04   0.1578348336E+00   0.3793098772E-02   0.0000000000E+00  -0.1485839999E-01
   0.1935639932E-01   0.1071157427E+00   0.1240685820E-04  -0.3455715955E-04   0.1240685820E-04  -0.3455715955E-04   0.1226460181E+00   0.1028798717E-01   0.0000000000E+00  -0.1449269405E-01
   0.0000000000E+00   0.1082621125E+00   0.0000000000E+00  -0.3561072661E-04   0.0000000000E+00  -0.3561072661E-04   0.1323470358E+00   0.8478038200E-02   0.0000000000E+00   0.9160231337E-04
   0.1681091429E-01   0.1512609529E+00   0.5927742956E-05  -0.3788106086E-04   0.5927742956E-05  -0.3788106086E-04   0.7450112894E-01   0.1338392208E-01   0.0000000000E+00   0.2970400719E-02
   0.0000000000E+00   0.1499229731E+00   0.0000000000E+00  -0.3851645502E-04   0.0000000000E+00  -0.3851645502E-04   0.7582711718E-01   0.1487400413E-01   0.0000000000E+00   0.3818684442E-04
   0.1729014446E-01   0.1427123732E+00   0.6553380143E-05  -0.3743740546E-04   0.6553380143E-05  -0.3743740546E-04   0.7973610570E-01   0.1394042378E-01   0.0000000000E+00   0.2135833954E-02
   0.8405489616E-02   0.1505916159E+00   0.2980117935E-05  -0.3836853616E-04   0.2980117935E-05  -0.3836853616E-04   0.7522443733E-01   0.1438699333E-01   0.0000000000E+00   0.1441483056E-02
   0.0000000000E+00   0.1415903457E+00   0.0000000000E+00  -0.3816764391E-04   0.0000000000E+00  -0.3816764391E-04   0.8153636656E-01   0.1551687830E-01   0.0000000000E+00   0.1023291675E-03
   0.5109377844E-01   0.1386061378E+00   0.1973417048E-04  -0.3175110359E-04   0.1973417048E-04  -0.3175110359E-04   0.7559980203E-01   0.5157564651E-02   0.0000000000E+00   0.4474039008E-02
   0.4908079874E-01   0.1539930815E+00   0.1694747149E-04  -0.3344724205E-04   0.1694747149E-04  -0.3344724205E-04   0.7052000862E-01   0.5255439331E-02   0.0000000000E+00   0.6610749551E-02
   0.3319861626E-01   0.1526643240E+00   0.1157578080E-04  -0.3606548873E-04   0.1157578080E-04  -0.3606548873E-04   0.7251364007E-01   0.9714132290E-02   0.0000000000E+00   0.5294820877E-02
   0.3439917253E-01   0.1356701908E+00   0.1384796527E-04  -0.3479858455E-04   0.1384796527E-04  -0.3479858455E-04   0.8088057418E-01   0.1069488303E-01   0.0000000000E+00   0.3183889362E-02
   0.5008706303E-01   0.1462995631E+00   0.1822711405E-04  -0.3262243050E-04   0.1822711405E-04  -0.3262243050E-04   0.7322782140E-01   0.5391735090E-02   0.0000000000E+00   0.5530729974E-02
   0.4113973375E-01   0.1533285334E+00   0.1427382263E-04  -0.3484128727E-04   0.1427382263E-04  -0.3484128727E-04   0.7152658586E-01   0.7581659047E-02   0.0000000000E+00   0.6005485811E-02
   0.3379863135E-01   0.1441672154E+00   0.1258032462E-04  -0.3544928244E-04   0.1258032462E-04  -0.3544928244E-04   0.7660689308E-01   0.1030674634E-01   0.0000000000E+00   0.4074011842E-02
   0.4274655012E-01   0.1371379765E+00   0.1682840918E-04  -0.3336525083E-04   0.1682840918E-04  -0.3336525083E-04   0.7828406802E-01   0.7882131868E-02   0.0000000000E+00   0.3427026702E-02
   0.1669523946E-01   0.1677258144E+00   0.5286577683E-05  -0.3866178194E-04   0.5286577683E-05  -0.3866178194E-04   0.6658010745E-01   0.1036126495E-01   0.0000000000E+00   0.3300848904E-02
   0.0000000000E+00   0.1665882517E+00   0.0000000000E+00  -0.3921014406E-04   0.0000000000E+00  -0.3921014406E-04   0.6711531504E-01   0.1155011573E-01   0.0000000000E+00   0.5017281655E-04
   0.8347630847E-02   0.1671567326E+00   0.2648853544E-05  -0.3908270117E-04   0.2648853544E-05  -0.3908270117E-04   0.6692681863E-01   0.1121605410E-01   0.0000000000E+00   0.1622295381E-02
   0.0000000000E+00   0.1582556155E+00   0.0000000000E+00  -0.3885773460E-04   0.0000000000E+00  -0.3885773460E-04   0.7099013454E-01   0.1295098603E-01   0.0000000000E+00   0.4795349721E-04
   0.1675301040E-01   0.1594933847E+00   0.5573950731E-05  -0.3826714872E-04   0.5573950731E-05  -0.3826714872E-04   0.7015649354E-01   0.1168607332E-01   0.0000000000E+00   0.3069874018E-02
   0.1710142297E-01   0.1840465921E+00   0.4980287285E-05  -0.3946793105E-04   0.4980287285E-05  -0.3946793105E-04   0.6066532817E-01   0.7393508256E-02   0.0000000000E+00   0.3246281635E-02
   0.3341164502E-01   0.1685329045E+00   0.1056711111E-04  -0.3699373899E-04   0.1056711111E-04  -0.3699373899E-04   0.6608566326E-01   0.7701616785E-02   0.0000000000E+00   0.5951388778E-02
   0.3453350812E-01   0.1842035833E+00   0.1010301177E-04  -0.3782484591E-04   0.1010301177E-04  -0.3782484591E-04   0.6095397651E-01   0.5506714888E-02   0.0000000000E+00   0.5924636360E-02
   0.1689830829E-01   0.1758862207E+00   0.5122444002E-05  -0.3905263760E-04   0.5122444002E-05  -0.3905263760E-04   0.6345660316E-01   0.8800607555E-02   0.0000000000E+00   0.3237776395E-02
   0.2505343960E-01   0.1681291158E+00   0.7925502053E-05  -0.3795362184E-04   0.7925502053E-05  -0.3795362184E-04   0.6640117685E-01   0.9252678096E-02   0.0000000000E+00   0.4584384301E-02
   0.3397254677E-01   0.1763682660E+00   0.1031923594E-04  -0.3740199698E-04   0.1031923594E-04  -0.3740199698E-04   0.6341828574E-01   0.6585852465E-02   0.0000000000E+00   0.5893603118E-02
   0.2581744712E-01   0.1841248281E+00   0.7532908943E-05  -0.3877246437E-04   0.7532908943E-05  -0.3877246437E-04   0.6084752831E-01   0.6598491822E-02   0.0000000000E+00   0.4586557759E-02
   0.1945127237E-01   0.2499133838E+00   0.3413634832E-05  -0.4330811791E-04   0.3413634832E-05  -0.4330811791E-04   0.3568117459E-01  -0.2000003977E-03   0.0000000000E+00   0.1045223662E-03
   0.3849483703E-01   0.2328630123E+00   0.8510664523E-05  -0.4063384994E-04   0.8510664523E-05  -0.4063384994E-04   0.4610302129E-01   0.3718216500E-03   0.0000000000E+00   0.3043783900E-02
   0.3890298960E-01   0.2499166619E+00   0.7049648243E-05  -0.4166904321E-04   0.7049648243E-05  -0.4166904321E-04   0.3905731288E-01  -0.1457768584E-03   0.0000000000E+00   0.1858050495E-03
   0.1927895491E-01   0.2415757261E+00   0.3818505861E-05  -0.4284442967E-04   0.3818505861E-05  -0.4284442967E-04   0.4017589062E-01   0.2331951072E-03   0.0000000000E+00   0.8863335411E-03
   0.2880060089E-01   0.2330503179E+00   0.6298392780E-05  -0.4161803962E-04   0.6298392780E-05  -0.4161803962E-04   0.4501260303E-01   0.5025934493E-03   0.0000000000E+00   0.2295858008E-02
   0.3869906255E-01   0.2413898033E+00   0.7853824579E-05  -0.4116834707E-04   0.7853824579E-05  -0.4116834707E-04   0.4285091458E-01   0.1691609182E-03   0.0000000000E+00   0.1634894318E-02
   0.2917705374E-01   0.2499147721E+00   0.5192520584E-05  -0.4261393285E-04   0.5192520584E-05  -0.4261393285E-04   0.3735452556E-01  -0.1317975634E-03   0.0000000000E+00   0.6977377147E-04
   0.2500479473E-01   0.1519623645E+00   0.8766516931E-05  -0.3710624352E-04   0.8766516931E-05  -0.3710624352E-04   0.7350678948E-01   0.1160420719E-01   0.0000000000E+00   0.4111169915E-02
   0.3330503366E-01   0.1605986225E+00   0.1102293190E-04  -0.3652926902E-04   0.1102293190E-04  -0.3652926902E-04   0.6916022330E-01   0.8685273037E-02   0.0000000000E+00   0.5525104119E-02
   0.3293610130E+00   0.0000000000E+00   0.9716599975E-04   0.0000000000E+00   0.9716599975E-04   0.0000000000E+00   0.2980226598E-01   0.8915336833E-02   0.0000000000E+00  -0.3195328042E-05
   0.3501999940E+00   0.0000000000E+00   0.1000000000E-03   0.0000000000E+00   0.1000000000E-03   0.0000000000E+00   0.2998042338E-01   0.8981160827E-02   0.0000000000E+00  -0.8598182337E-06
   0.3501999940E+00   0.1923074260E-01   0.1000000000E-03  -0.1364793052E-07   0.1000000000E-03  -0.1364793052E-07   0.3033885171E-01   0.8826449743E-02   0.0000000000E+00  -0.1049447022E-05
   0.3299572018E+00   0.1871451731E-01   0.9720739830E-04  -0.1399512518E-07   0.9720739830E-04  -0.1399512518E-07   0.3015911432E-01   0.8769427327E-02   0.0000000000E+00  -0.3179915571E-03
   0.3397804990E+00   0.0000000000E+00   0.9858097942E-04   0.0000000000E+00   0.9858097942E-04   0.0000000000E+00   0.2989200286E-01   0.8951464088E-02   0.0000000000E+00  -0.2981538796E-05
   0.3501999940E+00   0.9615377563E-02   0.1000000000E-03  -0.3703679242E-08   0.1000000000E-03  -0.3703679242E-08   0.3005128864E-01   0.8873840607E-02   0.0000000000E+00   0.7190336660E-07
   0.3400785928E+00   0.1897263057E-01   0.9860138934E-04  -0.1351508110E-07   0.9860138934E-04  -0.1351508110E-07   0.3024973726E-01   0.8802180833E-02   0.0000000000E+00  -0.1596250545E-03
   0.3296591268E+00   0.9357264499E-02   0.9719639113E-04  -0.4075448764E-08   0.9719639113E-04  -0.4075448764E-08   0.2987148583E-01   0.8811905174E-02   0.0000000000E+00  -0.1592656127E-03
   0.3501999940E+00   0.3846138620E-01   0.1000000000E-03  -0.7685153289E-07   0.1000000000E-03  -0.7685153289E-07   0.3139432124E-01   0.8375711821E-02   0.0000000000E+00  -0.5416914289E-06
   0.3304001347E+00   0.3768288065E-01   0.9715334598E-04  -0.7592388220E-07   0.9715334598E-04  -0.7592388220E-07   0.3120556322E-01   0.8328831004E-02   0.0000000000E+00  -0.5932404095E-03
   0.3501999940E+00   0.2884608366E-01   0.1000000000E-03  -0.3611923548E-07   0.1000000000E-03  -0.3611923548E-07   0.3076443716E-01   0.8572191176E-02   0.0000000000E+00  -0.9349440609E-06
   0.3403000585E+00   0.3807213684E-01   0.9857373116E-04  -0.7557873884E-07   0.9857373116E-04  -0.7557873884E-07   0.3130208275E-01   0.8360314016E-02   0.0000000000E+00  -0.2975748807E-03
   0.3301786851E+00   0.2819871758E-01   0.9718902559E-04  -0.3611120029E-07   0.9718902559E-04  -0.3611120029E-07   0.3057922262E-01   0.8520087681E-02   0.0000000000E+00  -0.4554607365E-03
   0.3307525534E+00   0.5676226216E-01   0.9702220808E-04  -0.2314689357E-06   0.9702220808E-04  -0.2314689357E-06   0.3288656000E-01   0.7632323131E-02   0.0000000000E+00  -0.8081253793E-03
   0.3310313235E+00   0.7595560947E-01   0.9682825743E-04  -0.5203174655E-06   0.9682825743E-04  -0.5203174655E-06   0.3510988982E-01   0.6740737362E-02   0.0000000000E+00  -0.9513044822E-03
   0.3119989517E+00   0.7514442909E-01   0.9370733604E-04  -0.5418552751E-06   0.9370733604E-04  -0.5418552751E-06   0.3482905607E-01   0.6516956897E-02   0.0000000000E+00  -0.1904574642E-02
   0.3113330760E+00   0.5605271052E-01   0.9407902322E-04  -0.2441891547E-06   0.9407902322E-04  -0.2441891547E-06   0.3251704278E-01   0.7421558226E-02   0.0000000000E+00  -0.1623965934E-02
   0.3308919343E+00   0.6635896918E-01   0.9693065678E-04  -0.3573580699E-06   0.9693065678E-04  -0.3573580699E-06   0.3392622871E-01   0.7165358704E-02   0.0000000000E+00  -0.8807297051E-03
   0.3215151147E+00   0.7555002189E-01   0.9526386897E-04  -0.5279030990E-06   0.9526386897E-04  -0.5279030990E-06   0.3497560043E-01   0.6648888924E-02   0.0000000000E+00  -0.1423986365E-02
   0.3116660343E+00   0.6559860370E-01   0.9390366115E-04  -0.3741998144E-06   0.9390366115E-04  -0.3741998144E-06   0.3360035510E-01   0.6948064900E-02   0.0000000000E+00  -0.1767257147E-02
   0.3210428048E+00   0.5640748994E-01   0.9554589392E-04  -0.2360305565E-06   0.9554589392E-04  -0.2360305565E-06   0.3270614983E-01   0.7541290450E-02   0.0000000000E+00  -0.1212088632E-02
   0.3311755035E+00   0.9525405417E-01   0.9657325277E-04  -0.9733139228E-06   0.9657325277E-04  -0.9733139228E-06   0.3775801552E-01   0.5726150478E-02   0.0000000000E+00  -0.1025153338E-02
   0.3123750790E+00   0.9439860600E-01   0.9321199153E-04  -0.1007999475E-05   0.9321199153E-04  -0.1007999475E-05   0.3756619957E-01   0.5491887935E-02   0.0000000000E+00  -0.2043488490E-02
   0.3311034364E+00   0.8560487140E-01   0.9670469340E-04  -0.7251499105E-06   0.9670469340E-04  -0.7251499105E-06   0.3638234420E-01   0.6217786754E-02   0.0000000000E+00  -0.9892527872E-03
   0.3217752851E+00   0.9482633637E-01   0.9488956178E-04  -0.9856129139E-06   0.9488956178E-04  -0.9856129139E-06   0.3766964185E-01   0.5633882367E-02   0.0000000000E+00  -0.1530777603E-02
   0.3121870303E+00   0.8477155784E-01   0.9346717393E-04  -0.7529276206E-06   0.9346717393E-04  -0.7529276206E-06   0.3614623378E-01   0.5988826010E-02   0.0000000000E+00  -0.1976740530E-02
   0.3311613184E+00   0.1147063376E+00   0.9626071748E-04  -0.1613188114E-05   0.9626071748E-04  -0.1613188114E-05   0.4071222081E-01   0.4659642477E-02   0.0000000000E+00  -0.1038694610E-02
   0.3310194904E+00   0.1342701339E+00   0.9590368000E-04  -0.2450047219E-05   0.9590368000E-04  -0.2450047219E-05   0.4384373113E-01   0.3609770135E-02   0.0000000000E+00  -0.1001805778E-02
   0.3119815422E+00   0.1337885924E+00   0.9184261400E-04  -0.2544819224E-05   0.9184261400E-04  -0.2544819224E-05   0.4386776681E-01   0.3361098159E-02   0.0000000000E+00  -0.1980989724E-02
   0.3123711803E+00   0.1139321837E+00   0.9258865757E-04  -0.1669669854E-05   0.9258865757E-04  -0.1669669854E-05   0.4061836197E-01   0.4416058369E-02   0.0000000000E+00  -0.2061051967E-02
   0.3310903927E+00   0.1244882882E+00   0.9608386233E-04  -0.2007375682E-05   0.9608386233E-04  -0.2007375682E-05   0.4226619689E-01   0.4130365716E-02   0.0000000000E+00  -0.1020385912E-02
   0.3215005316E+00   0.1340293909E+00   0.9387332126E-04  -0.2487073531E-05   0.9387332126E-04  -0.2487073531E-05   0.4386516682E-01   0.3515347067E-02   0.0000000000E+00  -0.1489003374E-02
   0.3121763688E+00   0.1238604419E+00   0.9221940322E-04  -0.2082048813E-05   0.9221940322E-04  -0.2082048813E-05   0.4223168765E-01   0.3883921079E-02   0.0000000000E+00  -0.2021721449E-02
   0.3217662457E+00   0.1143192750E+00   0.9442285439E-04  -0.1634011698E-05   0.9442285439E-04  -0.1634011698E-05   0.4067357765E-01   0.4566230551E-02   0.0000000000E+00  -0.1547031485E-02
   0.2891789800E+00   0.1826412551E-01   0.9170799272E-04  -0.2354311559E-07   0.9170799272E-04  -0.2354311559E-07   0.2878234596E-01   0.8229086187E-02   0.0000000000E+00  -0.9908143428E-03
   0.2876832652E+00   0.0000000000E+00   0.9163562282E-04   0.0000000000E+00   0.9163562282E-04   0.0000000000E+00   0.2830345328E-01   0.8368423380E-02   0.0000000000E+00  -0.1206750827E-04
   0.3085220691E+00   0.0000000000E+00   0.9436607135E-04   0.0000000000E+00   0.9436607135E-04   0.0000000000E+00   0.2924963937E-01   0.8715614451E-02   0.0000000000E+00  -0.7319574238E-05
   0.3095764802E+00   0.1840621905E-01   0.9442810722E-04  -0.1712520671E-07   0.9442810722E-04  -0.1712520671E-07   0.2964695491E-01   0.8574498720E-02   0.0000000000E+00  -0.6406135668E-03
   0.2884311664E+00   0.9132068982E-02   0.9170120964E-04  -0.8658849060E-08   0.9170120964E-04  -0.8658849060E-08   0.2842100895E-01   0.8266009264E-02   0.0000000000E+00  -0.4977515484E-03
   0.2981026305E+00   0.0000000000E+00   0.9298977011E-04   0.0000000000E+00   0.9298977011E-04   0.0000000000E+00   0.2877734665E-01   0.8546937593E-02   0.0000000000E+00  -0.7104622453E-05
   0.3090493135E+00   0.9203115392E-02   0.9441625417E-04  -0.5628832717E-08   0.9441625417E-04  -0.5628832717E-08   0.2933765007E-01   0.8614323042E-02   0.0000000000E+00  -0.3215529748E-03
   0.2993777104E+00   0.1833517223E-01   0.9305819540E-04  -0.1988257781E-07   0.9305819540E-04  -0.1988257781E-07   0.2921606653E-01   0.8408122771E-02   0.0000000000E+00  -0.8102026473E-03
   0.2123390948E+00   0.1636749708E+00   0.6594092398E-04  -0.7820578340E-05   0.6594092398E-04  -0.7820578340E-05   0.5235168137E-01  -0.1937467511E-02   0.0000000000E+00  -0.3600461182E-02
   0.2164465410E+00   0.1467570492E+00   0.6902600468E-04  -0.6102880721E-05   0.6902600468E-04  -0.6102880721E-05   0.4916784643E-01  -0.1799245103E-02   0.0000000000E+00  -0.4795748568E-02
   0.2311002261E+00   0.1467250698E+00   0.7262552779E-04  -0.5314084999E-05   0.7262552779E-04  -0.5314084999E-05   0.4828873264E-01  -0.6865143494E-03   0.0000000000E+00  -0.4656741860E-02
   0.2322915088E+00   0.1630921131E+00   0.7119991221E-04  -0.6530929652E-05   0.7119991221E-04  -0.6530929652E-05   0.5107413572E-01  -0.7138839139E-03   0.0000000000E+00  -0.3762038402E-02
   0.2143928200E+00   0.1552160371E+00   0.6748448454E-04  -0.6944456758E-05   0.6748448454E-04  -0.6944456758E-05   0.5085504018E-01  -0.1864801601E-02   0.0000000000E+00  -0.4172646507E-02
   0.2237734142E+00   0.1467411024E+00   0.7083708638E-04  -0.5687301115E-05   0.7083708638E-04  -0.5687301115E-05   0.4873703007E-01  -0.1194298449E-02   0.0000000000E+00  -0.4725690856E-02
   0.2316958316E+00   0.1549085997E+00   0.7189829772E-04  -0.5914651990E-05   0.7189829772E-04  -0.5914651990E-05   0.4969824164E-01  -0.6911241399E-03   0.0000000000E+00  -0.4203382499E-02
   0.2223153454E+00   0.1633836312E+00   0.6859219861E-04  -0.7130906879E-05   0.6859219861E-04  -0.7130906879E-05   0.5168288165E-01  -0.1336205298E-02   0.0000000000E+00  -0.3716011938E-02
   0.2279339615E+00   0.1845692900E-01   0.8425277236E-04  -0.8164842681E-07   0.8425277236E-04  -0.8164842681E-07   0.2358187020E-01   0.5920652098E-02   0.0000000000E+00  -0.2474393518E-02
   0.2307856643E+00   0.3704767691E-01   0.8369064660E-04  -0.2439445755E-06   0.8369064660E-04  -0.2439445755E-06   0.2597976776E-01   0.5267315131E-02   0.0000000000E+00  -0.4441777649E-02
   0.2293599326E+00   0.2775233236E-01   0.8403182291E-04  -0.1480710484E-06   0.8403182291E-04  -0.1480710484E-06   0.2461742883E-01   0.5552582385E-02   0.0000000000E+00  -0.3463313318E-02
   0.2207461368E+00   0.3734010656E-01   0.8246639227E-04  -0.2970213134E-06   0.8246639227E-04  -0.2970213134E-06   0.2497085647E-01   0.4524311549E-02   0.0000000000E+00  -0.5033160757E-02
   0.2176651870E+00   0.1859735050E-01   0.8315901413E-04  -0.1037976793E-06   0.8315901413E-04  -0.1037976793E-06   0.2215724983E-01   0.5217103518E-02   0.0000000000E+00  -0.2824435388E-02
   0.1834945418E+00   0.0000000000E+00   0.8060242296E-04   0.0000000000E+00   0.8060242296E-04   0.0000000000E+00   0.1492505732E-01   0.2249953947E-02   0.0000000000E+00  -0.8901634305E-04
   0.2043312108E+00   0.0000000000E+00   0.8227239634E-04   0.0000000000E+00   0.8227239634E-04   0.0000000000E+00   0.1916018760E-01   0.4544523415E-02   0.0000000000E+00  -0.5575100087E-04
   0.1851818971E+00   0.9506240746E-02   0.8057605756E-04  -0.1097671640E-06   0.8057605756E-04  -0.1097671640E-06   0.1557232646E-01   0.2164523660E-02   0.0000000000E+00  -0.2095457091E-02
   0.1939127744E+00   0.0000000000E+00   0.8139021466E-04   0.0000000000E+00   0.8139021466E-04   0.0000000000E+00   0.1709842919E-01   0.3499890017E-02   0.0000000000E+00  -0.5819132125E-04
   0.2058640753E+00   0.9368889236E-02   0.8230067426E-04  -0.6136701851E-07   0.8230067426E-04  -0.6136701851E-07   0.1965204849E-01   0.4425139911E-02   0.0000000000E+00  -0.1631604256E-02
   0.1418237034E+00   0.0000000000E+00   0.7851869386E-04   0.0000000000E+00   0.7851869386E-04   0.0000000000E+00   0.3010976031E-02  -0.8416951092E-02   0.0000000000E+00  -0.3209144870E-03
   0.1458245849E+00   0.2097974856E-01   0.7745046577E-04  -0.9064187506E-06   0.7745046577E-04  -0.9064187506E-06   0.7491701660E-02  -0.6646620266E-02   0.0000000000E+00  -0.6609372668E-02
   0.1438246940E+00   0.1048984305E-01   0.7825950348E-04  -0.4688232932E-06   0.7825950348E-04  -0.4688232932E-06   0.4237780481E-02  -0.7904406599E-02   0.0000000000E+00  -0.3209553200E-02
   0.1338534387E+00   0.2354381808E-01   0.7657882873E-04  -0.1558010065E-05   0.7657882873E-04  -0.1558010065E-05   0.4993374815E-02  -0.1176458751E-01   0.0000000000E+00  -0.6676294629E-02
   0.1314064650E+00   0.0000000000E+00   0.7823547557E-04   0.0000000000E+00   0.7823547557E-04   0.0000000000E+00   0.6755313506E-03  -0.1437171614E-01   0.0000000000E+00   0.1673674283E-05
   0.3501999940E+00   0.2499785026E+00   0.1000000000E-03  -0.1074868917E-04   0.1000000000E-03  -0.1074868917E-04   0.5988980468E-01  -0.4488243899E-04   0.0000000000E+00   0.8385063643E-06
   0.3307438940E+00   0.2499783458E+00   0.9416801397E-04  -0.1082708352E-04   0.9416801397E-04  -0.1082708352E-04   0.6006116493E-01  -0.4324945012E-04   0.0000000000E+00  -0.1079493416E-04
   0.3309773966E+00   0.2310284717E+00   0.9442181827E-04  -0.9147150247E-05   0.9442181827E-04  -0.9147150247E-05   0.5816384843E-01   0.1019680948E-03   0.0000000000E+00  -0.2905823458E-03
   0.3501999940E+00   0.2307511302E+00   0.1000000000E-03  -0.9050914433E-05   0.1000000000E-03  -0.9050914433E-05   0.5801144729E-01   0.1095255633E-03   0.0000000000E+00  -0.3641605346E-05
   0.3404719630E+00   0.2499784633E+00   0.9708600961E-04  -0.1076836685E-04   0.9708600961E-04  -0.1076836685E-04   0.5997550335E-01  -0.3551774275E-04   0.0000000000E+00  -0.3811283543E-05
   0.3308606306E+00   0.2405034257E+00   0.9428781518E-04  -0.9978673854E-05   0.9428781518E-04  -0.9978673854E-05   0.5919630628E-01   0.4981780585E-04   0.0000000000E+00  -0.1519362714E-03
   0.3405886842E+00   0.2308898444E+00   0.9721311344E-04  -0.9080812461E-05   0.9721311344E-04  -0.9080812461E-05   0.5809070699E-01   0.1166391751E-03   0.0000000000E+00  -0.1434981550E-03
   0.3501999940E+00   0.2403648266E+00   0.1000000000E-03  -0.9891213843E-05   0.1000000000E-03  -0.9891213843E-05   0.5903834825E-01   0.5345024188E-04   0.0000000000E+00  -0.1132527384E-05
   0.2731743713E+00   0.2316447115E+00   0.7739467321E-04  -0.1040524176E-04   0.7739467321E-04  -0.1040524176E-04   0.5990973611E-01   0.3523915602E-04   0.0000000000E+00  -0.9130939990E-03
   0.2924288101E+00   0.2314700853E+00   0.8312803438E-04  -0.9801329486E-05   0.8312803438E-04  -0.9801329486E-05   0.5914894838E-01   0.6586522581E-04   0.0000000000E+00  -0.7687384477E-03
   0.2918314066E+00   0.2499770234E+00   0.8237478106E-04  -0.1148828630E-04   0.8237478106E-04  -0.1148828630E-04   0.6137066031E-01  -0.2916312666E-04   0.0000000000E+00  -0.2934581876E-04
   0.2723749359E+00   0.2499757682E+00   0.7635746852E-04  -0.1211589858E-04   0.7635746852E-04  -0.1211589858E-04   0.6240473309E-01  -0.1696964307E-04   0.0000000000E+00  -0.3515171545E-04
   0.2828015944E+00   0.2315574520E+00   0.8027068635E-04  -0.1007648711E-04   0.8027068635E-04  -0.1007648711E-04   0.5953129982E-01   0.5870443292E-04   0.0000000000E+00  -0.8321110126E-03
   0.2921300576E+00   0.2407235722E+00   0.8273330264E-04  -0.1063589924E-04   0.8273330264E-04  -0.1063589924E-04   0.6031271223E-01   0.3185218610E-04   0.0000000000E+00  -0.4025842067E-03
   0.2821032105E+00   0.2499764517E+00   0.7937825915E-04  -0.1177416789E-04   0.7937825915E-04  -0.1177416789E-04   0.6188701137E-01  -0.1706269133E-04   0.0000000000E+00  -0.1758733670E-04
   0.2727746267E+00   0.2408102586E+00   0.7685535467E-04  -0.1125119327E-04   0.7685535467E-04  -0.1125119327E-04   0.6118437773E-01   0.1672092066E-04   0.0000000000E+00  -0.4785351151E-03
   0.3501999940E+00   0.1730677078E+00   0.1000000000E-03  -0.4610076525E-05   0.1000000000E-03  -0.4610076525E-05   0.5003125207E-01   0.1848050626E-02   0.0000000000E+00  -0.2570089305E-05
   0.3309685961E+00   0.1733049538E+00   0.9523705023E-04  -0.4682124139E-05   0.9523705023E-04  -0.4682124139E-05   0.5013062514E-01   0.1779071061E-02   0.0000000000E+00  -0.8010415317E-03
   0.3309608045E+00   0.1538403948E+00   0.9555825324E-04  -0.3478583374E-05   0.9555825324E-04  -0.3478583374E-05   0.4702193385E-01   0.2636705054E-02   0.0000000000E+00  -0.9174634916E-03
   0.3501999940E+00   0.1538392994E+00   0.1000000000E-03  -0.3430317522E-05   0.1000000000E-03  -0.3430317522E-05   0.4697216829E-01   0.2714781136E-02   0.0000000000E+00  -0.2229671659E-05
   0.3405843139E+00   0.1731863663E+00   0.9762047462E-04  -0.4631851347E-05   0.9762047462E-04  -0.4631851347E-05   0.5008789013E-01   0.1835021442E-02   0.0000000000E+00  -0.4001078629E-03
   0.3309646821E+00   0.1635727178E+00   0.9539603593E-04  -0.4058593112E-05   0.9539603593E-04  -0.4058593112E-05   0.4859530836E-01   0.2213237535E-02   0.0000000000E+00  -0.8573736476E-03
   0.3405804011E+00   0.1538398714E+00   0.9778003155E-04  -0.3442288572E-05   0.9778003155E-04  -0.3442288572E-05   0.4700552345E-01   0.2701338916E-02   0.0000000000E+00  -0.4579903307E-03
   0.3501999940E+00   0.1634535384E+00   0.1000000000E-03  -0.3998780504E-05   0.1000000000E-03  -0.3998780504E-05   0.4851886676E-01   0.2286245525E-02   0.0000000000E+00  -0.2118237943E-05
   0.3501999940E+00   0.1346105358E+00   0.1000000000E-03  -0.2427624635E-05   0.1000000000E-03  -0.2427624635E-05   0.4386651238E-01   0.3682684374E-02   0.0000000000E+00  -0.1687006855E-05
   0.3309901477E+00   0.1440553114E+00   0.9573084608E-04  -0.2940799397E-05   0.9573084608E-04  -0.2940799397E-05   0.4543775269E-01   0.3124163757E-02   0.0000000000E+00  -0.9589759247E-03
   0.3406097412E+00   0.1344403617E+00   0.9795111672E-04  -0.2429138032E-05   0.9795111672E-04  -0.2429138032E-05   0.4386407827E-01   0.3673864370E-02   0.0000000000E+00  -0.4998101811E-03
   0.3501999940E+00   0.1442249706E+00   0.1000000000E-03  -0.2906193471E-05   0.1000000000E-03  -0.2906193471E-05   0.4542276026E-01   0.3198867207E-02   0.0000000000E+00  -0.1530900152E-05
   0.3501999940E+00   0.1153813958E+00   0.1000000000E-03  -0.1610091542E-05   0.1000000000E-03  -0.1610091542E-05   0.4081006242E-01   0.4717463199E-02   0.0000000000E+00  -0.9502961723E-06
   0.3406806370E+00   0.1150438810E+00   0.9812800739E-04  -0.1604497738E-05   0.9812800739E-04  -0.1604497738E-05   0.4076949188E-01   0.4715372264E-02   0.0000000000E+00  -0.5182643575E-03
   0.3501999940E+00   0.1249960090E+00   0.1000000000E-03  -0.1995488906E-05   0.1000000000E-03  -0.1995488906E-05   0.4232558328E-01   0.4195427556E-02   0.0000000000E+00  -0.1187497682E-05
   0.3501999940E+00   0.9615189017E-01   0.1000000000E-03  -0.9788651157E-06   0.1000000000E-03  -0.9788651157E-06   0.3791115345E-01   0.5770793012E-02   0.0000000000E+00  -0.6210857442E-06
   0.3311684315E+00   0.1049802387E+00   0.9641973966E-04  -0.1269632722E-05   0.9641973966E-04  -0.1269632722E-05   0.3920400926E-01   0.5183026101E-02   0.0000000000E+00  -0.1032655956E-02
   0.3406877425E+00   0.9570298562E-01   0.9828323462E-04  -0.9711900109E-06   0.9828323462E-04  -0.9711900109E-06   0.3784184760E-01   0.5772208280E-02   0.0000000000E+00  -0.5118588094E-03
   0.3501999940E+00   0.1057666890E+00   0.1000000000E-03  -0.1271484825E-05   0.1000000000E-03  -0.1271484825E-05   0.3932953290E-01   0.5234083181E-02   0.0000000000E+00  -0.7851042336E-06
   0.3501999940E+00   0.7692202697E-01   0.1000000000E-03  -0.5264135637E-06   0.1000000000E-03  -0.5264135637E-06   0.3529157775E-01   0.6779771771E-02   0.0000000000E+00  -0.5791199512E-06
   0.3406156369E+00   0.7643882433E-01   0.9841043797E-04  -0.5202868743E-06   0.9841043797E-04  -0.5202868743E-06   0.3520651404E-01   0.6779322458E-02   0.0000000000E+00  -0.4755381840E-03
   0.3501999940E+00   0.8653700139E-01   0.1000000000E-03  -0.7312050965E-06   0.1000000000E-03  -0.7312050965E-06   0.3655025328E-01   0.6259585431E-02   0.0000000000E+00  -0.6275177859E-06
   0.3501999940E+00   0.5769183773E-01   0.1000000000E-03  -0.2351354678E-06   0.1000000000E-03  -0.2351354678E-06   0.3307880524E-01   0.7672354146E-02   0.0000000000E+00  -0.7136742240E-06
   0.3404762662E+00   0.5722705153E-01   0.9850760919E-04  -0.2315866265E-06   0.9850760919E-04  -0.2315866265E-06   0.3298664645E-01   0.7665899962E-02   0.0000000000E+00  -0.4045248197E-03
   0.3305763578E+00   0.4722259976E-01   0.9709491562E-04  -0.1395199847E-06   0.9709491562E-04  -0.1395199847E-06   0.3195603681E-01   0.7954725062E-02   0.0000000000E+00  -0.7012856875E-03
   0.3501999940E+00   0.4807664070E-01   0.1000000000E-03  -0.1415977144E-06   0.1000000000E-03  -0.1415977144E-06   0.3214766148E-01   0.7998329449E-02   0.0000000000E+00  -0.6678448458E-06
   0.0000000000E+00   0.2499122464E+00   0.0000000000E+00  -0.4387679175E-04   0.0000000000E+00  -0.4387679175E-04   0.3447886677E-01  -0.2169794878E-03   0.0000000000E+00   0.7000235649E-05
   0.9725608486E-02   0.2499125309E+00   0.1692958133E-05  -0.4373453993E-04   0.1692958133E-05  -0.4373453993E-04   0.3505890305E-01  -0.1623274279E-03   0.0000000000E+00   0.2609156623E-04
   0.0000000000E+00   0.2415798417E+00   0.0000000000E+00  -0.4341667409E-04   0.0000000000E+00  -0.4341667409E-04   0.3925665321E-01   0.2608368222E-03   0.0000000000E+00   0.1991740359E-04
   0.3760580069E-01   0.2161394883E+00   0.9380743140E-05  -0.3959585638E-04   0.9380743140E-05  -0.3959585638E-04   0.5163173642E-01   0.1663459906E-02   0.0000000000E+00   0.4680212517E-02
   0.3621298556E-01   0.2000273787E+00   0.9839030144E-05  -0.3866014597E-04   0.9839030144E-05  -0.3866014597E-04   0.5632454452E-01   0.3414309373E-02   0.0000000000E+00   0.5565093802E-02
   0.5561369387E-01   0.1985374443E+00   0.1538593338E-04  -0.3578985916E-04   0.1538593338E-04  -0.3578985916E-04   0.5785283349E-01   0.1685570548E-02   0.0000000000E+00   0.7272228575E-02
   0.5753611098E-01   0.2148518678E+00   0.1468544049E-04  -0.3674058595E-04   0.1468544049E-04  -0.3674058595E-04   0.5389399631E-01   0.8081493997E-03   0.0000000000E+00   0.6171132594E-02
   0.3690943373E-01   0.2080834334E+00   0.9631112602E-05  -0.3912429278E-04   0.9631112602E-05  -0.3912429278E-04   0.5403500309E-01   0.2562217401E-02   0.0000000000E+00   0.5098574793E-02
   0.4591328403E-01   0.1992821797E+00   0.1258466619E-04  -0.3733713839E-04   0.1258466619E-04  -0.3733713839E-04   0.5712154714E-01   0.2666179078E-02   0.0000000000E+00   0.6403705767E-02
   0.5657495461E-01   0.2066946542E+00   0.1506085440E-04  -0.3626637722E-04   0.1506085440E-04  -0.3626637722E-04   0.5580756922E-01   0.1255323292E-02   0.0000000000E+00   0.6685165316E-02
   0.4757088771E-01   0.2154954572E+00   0.1199905423E-04  -0.3827838807E-04   0.1199905423E-04  -0.3827838807E-04   0.5276281431E-01   0.1305698251E-02   0.0000000000E+00   0.5395306879E-02
   0.1781726676E-01   0.2003346667E+00   0.4799329905E-05  -0.4035314421E-04   0.4799329905E-05  -0.4035314421E-04   0.5549105871E-01   0.4604531658E-02   0.0000000000E+00   0.3012214540E-02
   0.1817936816E-01   0.2085133311E+00   0.4693830347E-05  -0.4083093787E-04   0.4693830347E-05  -0.4083093787E-04   0.5292702085E-01   0.3457906948E-02   0.0000000000E+00   0.2749715775E-02
   0.2701509647E-01   0.2001807697E+00   0.7304786491E-05  -0.3963662640E-04   0.7304786491E-05  -0.3963662640E-04   0.5594029072E-01   0.4142298907E-02   0.0000000000E+00   0.4275533122E-02
   0.2807357084E-01   0.2164154632E+00   0.6951920194E-05  -0.4059140111E-04   0.6951920194E-05  -0.4059140111E-04   0.5092392903E-01   0.2047111256E-02   0.0000000000E+00   0.3580577769E-02
   0.5822465208E-01   0.2322422207E+00   0.1326208931E-04  -0.3793364240E-04   0.1326208931E-04  -0.3793364240E-04   0.4930930859E-01   0.1877597490E-03   0.0000000000E+00   0.3988270503E-02
   0.5788048608E-01   0.2235470365E+00   0.1402698978E-04  -0.3734473867E-04   0.1402698978E-04  -0.3734473867E-04   0.5164380854E-01   0.5128965199E-03   0.0000000000E+00   0.5058814785E-02
   0.4835966347E-01   0.2325524050E+00   0.1084488324E-04  -0.3938601557E-04   0.1084488324E-04  -0.3938601557E-04   0.4771283555E-01   0.3216127061E-03   0.0000000000E+00   0.3447769308E-02
   0.3805040444E-01   0.2245012429E+00   0.8988522309E-05  -0.4011856746E-04   0.8988522309E-05  -0.4011856746E-04   0.4900800574E-01   0.1068128908E-02   0.0000000000E+00   0.3846518640E-02
   0.1556324249E+00   0.2499549859E+00   0.3843194725E-04  -0.2250703568E-04   0.3843194725E-04  -0.2250703568E-04   0.6510389463E-01   0.1156404432E-03   0.0000000000E+00   0.6559986562E-04
   0.1361755321E+00   0.2499488088E+00   0.3221104193E-04  -0.2559559332E-04   0.3221104193E-04  -0.2559559332E-04   0.6291441454E-01   0.1235538427E-03   0.0000000000E+00   0.1144054222E-03
   0.1459039329E+00   0.2499519872E+00   0.3529495860E-04  -0.2400641664E-04   0.3529495860E-04  -0.2400641664E-04   0.6401418806E-01   0.8835866367E-04   0.0000000000E+00   0.4489595712E-04
   0.1366127243E+00   0.2412656466E+00   0.3374166398E-04  -0.2471022275E-04   0.3374166398E-04  -0.2471022275E-04   0.6172516266E-01  -0.1408890562E-03   0.0000000000E+00   0.1125332375E-02
   0.1560837953E+00   0.2412595566E+00   0.3983962552E-04  -0.2160070814E-04   0.3983962552E-04  -0.2160070814E-04   0.6349336909E-01  -0.1327801004E-03   0.0000000000E+00   0.6417108772E-03
   0.1750896169E+00   0.2499603916E+00   0.4480994254E-04  -0.1980420957E-04   0.4480994254E-04  -0.1980420957E-04   0.6614619337E-01   0.9538362583E-04   0.0000000000E+00   0.2582546839E-04
   0.1760187387E+00   0.2324601402E+00   0.4730084122E-04  -0.1798639019E-04   0.4730084122E-04  -0.1798639019E-04   0.6289889447E-01  -0.2458664328E-03   0.0000000000E+00   0.4102491650E-03
   0.1653609948E+00   0.2499577923E+00   0.4160787951E-04  -0.2110385126E-04   0.4160787951E-04  -0.2110385126E-04   0.6562711508E-01   0.7944466274E-04   0.0000000000E+00   0.2349615934E-04
   0.1662768741E+00   0.2325122184E+00   0.4423505753E-04  -0.1929080361E-04   0.4423505753E-04  -0.1929080361E-04   0.6259967301E-01  -0.3028309764E-03   0.0000000000E+00   0.7719040790E-03
   0.1755542055E+00   0.2412102797E+00   0.4606925861E-04  -0.1888816033E-04   0.4606925861E-04  -0.1888816033E-04   0.6433876834E-01  -0.1116453304E-03   0.0000000000E+00   0.2218840313E-03
   0.2251685456E+00   0.0000000000E+00   0.8427579278E-04   0.0000000000E+00   0.8427579278E-04   0.0000000000E+00   0.2247544222E-01   0.6054308532E-02   0.0000000000E+00  -0.4044085865E-04
   0.2460064229E+00   0.0000000000E+00   0.8654296719E-04   0.0000000000E+00   0.8654296719E-04   0.0000000000E+00   0.2500537484E-01   0.7103009692E-02   0.0000000000E+00  -0.2726767959E-04
   0.2484195183E+00   0.1834232322E-01   0.8658814244E-04  -0.5233829700E-07   0.8658814244E-04  -0.5233829700E-07   0.2582712200E-01   0.6963818299E-02   0.0000000000E+00  -0.1877412379E-02
   0.2265514098E+00   0.9228473845E-02   0.8433890748E-04  -0.3616235894E-07   0.8433890748E-04  -0.3616235894E-07   0.2281201498E-01   0.5936867780E-02   0.0000000000E+00  -0.1244609657E-02
   0.2355874261E+00   0.0000000000E+00   0.8538005580E-04   0.0000000000E+00   0.8538005580E-04   0.0000000000E+00   0.2374810964E-01   0.6600888565E-02   0.0000000000E+00  -0.2398844092E-04
   0.2472130831E+00   0.9171169643E-02   0.8662155751E-04  -0.2215342821E-07   0.8662155751E-04  -0.2215342821E-07   0.2524653182E-01   0.6991859729E-02   0.0000000000E+00  -0.9443538357E-03
   0.2381766970E+00   0.1839962989E-01   0.8539551995E-04  -0.6510293801E-07   0.8539551995E-04  -0.6510293801E-07   0.2471320308E-01   0.6465279788E-02   0.0000000000E+00  -0.2153247616E-02
   0.1966633950E+00   0.1994896255E+00   0.5741452004E-04  -0.1247876935E-04   0.5741452004E-04  -0.1247876935E-04   0.5819452323E-01  -0.1468085680E-02   0.0000000000E+00  -0.1037491910E-02
   0.2156852382E+00   0.1983709077E+00   0.6305659802E-04  -0.1067462665E-04   0.6305659802E-04  -0.1067462665E-04   0.5724913210E-01  -0.9368494709E-03   0.0000000000E+00  -0.1788233642E-02
   0.2156648157E+00   0.2151136394E+00   0.6138382838E-04  -0.1220429665E-04   0.6138382838E-04  -0.1220429665E-04   0.5967362565E-01  -0.4849933959E-03   0.0000000000E+00  -0.1169025462E-02
   0.1963337493E+00   0.2155932549E+00   0.5552064088E-04  -0.1403357128E-04   0.5552064088E-04  -0.1403357128E-04   0.6031358697E-01  -0.7599030421E-03   0.0000000000E+00  -0.5171068433E-03
   0.2061743533E+00   0.1989303671E+00   0.6025016593E-04  -0.1152643768E-04   0.6025016593E-04  -0.1152643768E-04   0.5771723044E-01  -0.1211371609E-02   0.0000000000E+00  -0.1436322605E-02
   0.2156750053E+00   0.2067422720E+00   0.6220915937E-04  -0.1143650689E-04   0.6220915937E-04  -0.1143650689E-04   0.5844208918E-01  -0.7190387022E-03   0.0000000000E+00  -0.1463841121E-02
   0.2059992930E+00   0.2153535493E+00   0.5846151686E-04  -0.1306783950E-04   0.5846151686E-04  -0.1306783950E-04   0.5999099071E-01  -0.6277523374E-03   0.0000000000E+00  -0.8601571555E-03
   0.1964985577E+00   0.2075414467E+00   0.5646034748E-04  -0.1325666494E-04   0.5646034748E-04  -0.1325666494E-04   0.5922064921E-01  -0.1128204830E-02   0.0000000000E+00  -0.7614397477E-03
   0.1175765825E+00   0.2323824726E+00   0.2935423859E-04  -0.2726368870E-04   0.2935423859E-04  -0.2726368870E-04   0.5887256271E-01  -0.2982641158E-03   0.0000000000E+00   0.3041804077E-02
   0.1189448407E+00   0.2151968691E+00   0.3210536476E-04  -0.2541844959E-04   0.3210536476E-04  -0.2541844959E-04   0.5925537661E-01  -0.1303568460E-02   0.0000000000E+00   0.4529608625E-02
   0.1273130854E+00   0.2324825509E+00   0.3223518232E-04  -0.2551156557E-04   0.3223518232E-04  -0.2551156557E-04   0.5992214520E-01  -0.3569634067E-03   0.0000000000E+00   0.2506146090E-02
   0.1182607849E+00   0.2237896463E+00   0.3076644504E-04  -0.2635335608E-04   0.3076644504E-04  -0.2635335608E-04   0.5897441019E-01  -0.8304893132E-03   0.0000000000E+00   0.3795259728E-02
   0.1286178055E+00   0.2154828877E+00   0.3496423550E-04  -0.2367916897E-04   0.3496423550E-04  -0.2367916897E-04   0.5971294206E-01  -0.1408180438E-02   0.0000000000E+00   0.3732527220E-02
   0.2140041993E+00   0.2499687121E+00   0.5765764740E-04  -0.1564394414E-04   0.5765764740E-04  -0.1564394414E-04   0.6570200382E-01   0.4316253677E-04   0.0000000000E+00  -0.2248127948E-04
   0.1945469368E+00   0.2499649623E+00   0.5124439150E-04  -0.1751883195E-04   0.5124439150E-04  -0.1751883195E-04   0.6625913263E-01   0.6955771071E-04   0.0000000000E+00  -0.3300580016E-05
   0.1955420391E+00   0.2323876446E+00   0.5345105526E-04  -0.1570719546E-04   0.5345105526E-04  -0.1570719546E-04   0.6287860140E-01  -0.1802502157E-03   0.0000000000E+00  -0.2064733018E-03
   0.2150312845E+00   0.2322560217E+00   0.5956922842E-04  -0.1385214959E-04   0.5956922842E-04  -0.1385214959E-04   0.6240574441E-01  -0.1140876757E-03   0.0000000000E+00  -0.6299406395E-03
   0.2042755801E+00   0.2499669372E+00   0.5445703347E-04  -0.1653140861E-04   0.5445703347E-04  -0.1653140861E-04   0.6597906673E-01   0.4478633040E-04   0.0000000000E+00  -0.5717057810E-05
   0.1950444862E+00   0.2411763284E+00   0.5234709526E-04  -0.1660430491E-04   0.5234709526E-04  -0.1660430491E-04   0.6443049786E-01  -0.8307057055E-04   0.0000000000E+00  -0.1054485122E-03
   0.2052866730E+00   0.2323219359E+00   0.5651601812E-04  -0.1472854157E-04   0.5651601812E-04  -0.1472854157E-04   0.6263782540E-01  -0.1590414443E-03   0.0000000000E+00  -0.4244545182E-03
   0.2145177198E+00   0.2411123790E+00   0.5860239023E-04  -0.1473848835E-04   0.5860239023E-04  -0.1473848835E-04   0.6396314767E-01  -0.5360185566E-04   0.0000000000E+00  -0.3295653900E-03
   0.2344654302E+00   0.2319288359E+00   0.6562208428E-04  -0.1237006004E-04   0.6562208428E-04  -0.1237006004E-04   0.6163013096E-01  -0.5603021848E-04   0.0000000000E+00  -0.8779508887E-03
   0.2538401218E+00   0.2318016075E+00   0.7155689470E-04  -0.1124626943E-04   0.7155689470E-04  -0.1124626943E-04   0.6077003413E-01  -0.5280955075E-05   0.0000000000E+00  -0.9596423777E-03
   0.2529182522E+00   0.2499740243E+00   0.7023360568E-04  -0.1298784909E-04   0.7023360568E-04  -0.1298784909E-04   0.6357118062E-01  -0.6833992262E-06   0.0000000000E+00  -0.3694123167E-04
   0.2334613283E+00   0.2499717036E+00   0.6399714081E-04  -0.1414820403E-04   0.6399714081E-04  -0.1414820403E-04   0.6473037613E-01   0.1934230039E-04   0.0000000000E+00  -0.3332256581E-04
   0.2441528040E+00   0.2318652919E+00   0.6860001364E-04  -0.1176954758E-04   0.6860001364E-04  -0.1176954758E-04   0.6119981744E-01  -0.2852203063E-04   0.0000000000E+00  -0.9116891194E-03
   0.2533791447E+00   0.2408878354E+00   0.7087434894E-04  -0.1210727626E-04   0.7087434894E-04  -0.1210727626E-04   0.6216444483E-01  -0.2912920835E-05   0.0000000000E+00  -0.5031888255E-03
   0.2431898096E+00   0.2499729419E+00   0.6712879815E-04  -0.1352903665E-04   0.6712879815E-04  -0.1352903665E-04   0.6414922868E-01   0.9298300057E-05   0.0000000000E+00  -0.1827480694E-04
   0.2339633433E+00   0.2409502827E+00   0.6479167198E-04  -0.1324914915E-04   0.6479167198E-04  -0.1324914915E-04   0.6313454402E-01  -0.2696920847E-04   0.0000000000E+00  -0.4604702448E-03
   0.2635072677E+00   0.2317232242E+00   0.7448633241E-04  -0.1079340586E-04   0.7448633241E-04  -0.1079340586E-04   0.6034079731E-01   0.2112493506E-04   0.0000000000E+00  -0.9273252432E-03
   0.2626466063E+00   0.2499749625E+00   0.7330915048E-04  -0.1251876480E-04   0.7330915048E-04  -0.1251876480E-04   0.6298679113E-01  -0.5413863680E-05   0.0000000000E+00  -0.1919345666E-04
   0.3112877282E+00   0.2499778642E+00   0.8830311412E-04  -0.1106792143E-04   0.8830311412E-04  -0.1106792143E-04   0.6056806189E-01  -0.3773805597E-04   0.0000000000E+00  -0.2084999701E-04
   0.3116801027E+00   0.2312534399E+00   0.8879337197E-04  -0.9390548949E-05   0.8879337197E-04  -0.9390548949E-05   0.5855061926E-01   0.8784571482E-04   0.0000000000E+00  -0.5539300885E-03
   0.3210158080E+00   0.2499781469E+00   0.9124150480E-04  -0.1092653375E-04   0.9124150480E-04  -0.1092653375E-04   0.6031463674E-01  -0.3208535453E-04   0.0000000000E+00  -0.9297722287E-05
   0.3114839036E+00   0.2406156687E+00   0.8853482225E-04  -0.1022065569E-04   0.8853482225E-04  -0.1022065569E-04   0.5963061949E-01   0.4276558040E-04   0.0000000000E+00  -0.2899256957E-03
   0.3213287601E+00   0.2311409950E+00   0.9161253749E-04  -0.9249008130E-05   0.9161253749E-04  -0.9249008130E-05   0.5836000850E-01   0.1054208885E-03   0.0000000000E+00  -0.4173709883E-03
   0.5564517088E-01   0.8309360841E-01   0.4407358938E-04  -0.2667554343E-04   0.4407358938E-04  -0.2667554343E-04   0.5934288518E-01   0.2672632175E-01   0.0000000000E+00  -0.3819101996E-01
   0.7201348746E-01   0.9409720255E-01   0.4178163181E-04  -0.2195782523E-04   0.4178163181E-04  -0.2195782523E-04   0.6365472633E-01   0.3363363126E-02   0.0000000000E+00  -0.1498172464E-01
   0.6205306197E-01   0.1069364882E+00   0.3247703368E-04  -0.2595988479E-04   0.3247703368E-04  -0.2595988479E-04   0.7475770891E-01   0.3863065709E-02   0.0000000000E+00  -0.9386944681E-02
   0.3832939590E-01   0.9232679617E-01   0.3052664905E-04  -0.3057786628E-04   0.3052664905E-04  -0.3057786628E-04   0.1026602567E+00   0.1766653141E-01   0.0000000000E+00  -0.3899700705E-01
   0.6382825153E-01   0.8859568860E-01   0.4238971493E-04  -0.2417700036E-04   0.4238971493E-04  -0.2417700036E-04   0.5776512975E-01   0.1009784784E-01   0.0000000000E+00  -0.2333194855E-01
   0.6703311494E-01   0.1005168245E+00   0.3704947138E-04  -0.2396923567E-04   0.3704947138E-04  -0.2396923567E-04   0.6906721555E-01   0.3410600794E-02   0.0000000000E+00  -0.1241201214E-01
   0.5019094356E-01   0.9963112696E-01   0.3135918054E-04  -0.2852642214E-04   0.3135918054E-04  -0.2852642214E-04   0.8485765938E-01   0.9987620813E-02   0.0000000000E+00  -0.2223770012E-01
   0.4721459406E-01   0.8813472377E-01   0.3745982848E-04  -0.2870191523E-04   0.3745982848E-04  -0.2870191523E-04   0.8252680153E-01   0.2441397244E-01   0.0000000000E+00  -0.4024868480E-01
   0.0000000000E+00   0.1999182314E+00   0.0000000000E+00  -0.4088581351E-04   0.0000000000E+00  -0.4088581351E-04   0.5535336730E-01   0.5112189246E-02   0.0000000000E+00   0.3171847430E-04
   0.8908629750E-02   0.2001261660E+00   0.2397854882E-05  -0.4075700222E-04   0.2397854882E-05  -0.4075700222E-04   0.5545848233E-01   0.5000898108E-02   0.0000000000E+00   0.1498684845E-02
   0.0000000000E+00   0.2082505934E+00   0.0000000000E+00  -0.4137477776E-04   0.0000000000E+00  -0.4137477776E-04   0.5267747671E-01   0.3834394300E-02   0.0000000000E+00   0.2997594919E-04
   0.0000000000E+00   0.1832533608E+00   0.0000000000E+00  -0.3998808548E-04   0.0000000000E+00  -0.3998808548E-04   0.6080154839E-01   0.8202069691E-02   0.0000000000E+00   0.3105280497E-04
   0.8550713920E-02   0.1836497075E+00   0.2491364768E-05  -0.3986624514E-04   0.2491364768E-05  -0.3986624514E-04   0.6077871516E-01   0.7979745422E-02   0.0000000000E+00   0.1616402095E-02
   0.1745934862E-01   0.1921906619E+00   0.4891711087E-05  -0.3989803631E-04   0.4891711087E-05  -0.3989803631E-04   0.5804618078E-01   0.5987659895E-02   0.0000000000E+00   0.3106448726E-02
   0.0000000000E+00   0.1915858187E+00   0.0000000000E+00  -0.4042212842E-04   0.0000000000E+00  -0.4042212842E-04   0.5804952812E-01   0.6639080418E-02   0.0000000000E+00   0.3115083706E-04
   0.3654356670E-01   0.1168015320E+00   0.1846439991E-04  -0.3294200214E-04   0.1846439991E-04  -0.3294200214E-04   0.9317459237E-01   0.1001682723E-01   0.0000000000E+00  -0.4592463556E-02
   0.2907502867E-01   0.9563002707E-01   0.2328043612E-04  -0.3200411501E-04   0.2328043612E-04  -0.3200411501E-04   0.1282798482E+00   0.1230669540E-01   0.0000000000E+00  -0.3594383074E-01
   0.3743395794E-01   0.1045642816E+00   0.2323382236E-04  -0.3170120231E-04   0.2323382236E-04  -0.3170120231E-04   0.9935841085E-01   0.1319774321E-01   0.0000000000E+00  -0.2038740316E-01
   0.2785937772E-01   0.1165104127E+00   0.1449466050E-04  -0.3444462550E-04   0.1449466050E-04  -0.3444462550E-04   0.9977144322E-01   0.1266982992E-01   0.0000000000E+00  -0.5162580547E-02
   0.0000000000E+00   0.1749208429E+00   0.0000000000E+00  -0.3958456414E-04   0.0000000000E+00  -0.3958456414E-04   0.6375788352E-01   0.9780146986E-02   0.0000000000E+00   0.4513736911E-04
   0.2608453679E-01   0.1349167464E+00   0.1064504345E-04  -0.3601931466E-04   0.1064504345E-04  -0.3601931466E-04   0.8405562140E-01   0.1347682887E-01   0.0000000000E+00   0.2051362162E-02
   0.3537325454E-01   0.1921154882E+00   0.9975769867E-05  -0.3823488591E-04   0.9975769867E-05  -0.3823488591E-04   0.5862797286E-01   0.4452119778E-02   0.0000000000E+00   0.5710054845E-02
   0.2668447076E+00   0.0000000000E+00   0.8901331706E-04   0.0000000000E+00   0.8901331706E-04   0.0000000000E+00   0.2691319499E-01   0.7846553072E-02   0.0000000000E+00  -0.1834196748E-04
   0.2688041119E+00   0.1829144140E-01   0.8908345493E-04  -0.3460008908E-07   0.8908345493E-04  -0.3460008908E-07   0.2753020262E-01   0.7706431888E-02   0.0000000000E+00  -0.1395840556E-02
   0.2678244927E+00   0.9145727711E-02   0.8908987389E-04  -0.1380467145E-07   0.8908987389E-04  -0.1380467145E-07   0.2708089395E-01   0.7740410046E-02   0.0000000000E+00  -0.7018109135E-03
   0.2586117765E+00   0.1831688450E-01   0.8781675223E-04  -0.4240150900E-07   0.8781675223E-04  -0.4240150900E-07   0.2668267194E-01   0.7348928960E-02   0.0000000000E+00  -0.1621639139E-02
   0.2564255358E+00   0.0000000000E+00   0.8775590622E-04   0.0000000000E+00   0.8775590622E-04   0.0000000000E+00   0.2596256598E-01   0.7486864637E-02   0.0000000000E+00  -0.1601769750E-04
   0.2366874498E+00   0.7431410603E-01   0.8152339817E-04  -0.1045036370E-05   0.8152339817E-04  -0.1045036370E-05   0.3309701571E-01   0.3208984156E-02   0.0000000000E+00  -0.6297296889E-02
   0.2553857058E+00   0.7383624577E-01   0.8456839530E-04  -0.8227146016E-06   0.8456839530E-04  -0.8227146016E-06   0.3349985034E-01   0.4505240625E-02   0.0000000000E+00  -0.5048576756E-02
   0.2460365808E+00   0.7407519216E-01   0.8304738451E-04  -0.9239213914E-06   0.8304738451E-04  -0.9239213914E-06   0.3331681363E-01   0.3902150173E-02   0.0000000000E+00  -0.5643187656E-02
   0.2563791021E+00   0.8305389318E-01   0.8403004417E-04  -0.1092108806E-05   0.8403004417E-04  -0.1092108806E-05   0.3519111924E-01   0.3980512481E-02   0.0000000000E+00  -0.5115626935E-02
   0.2381140136E+00   0.8349604499E-01   0.8087580381E-04  -0.1358055490E-05   0.8087580381E-04  -0.1358055490E-05   0.3506283701E-01   0.2706620490E-02   0.0000000000E+00  -0.6288868549E-02
   0.3105241117E+00   0.3712679646E-01   0.9432737200E-04  -0.8282160945E-07   0.9432737200E-04  -0.8282160945E-07   0.3075574546E-01   0.8129757068E-02   0.0000000000E+00  -0.1195019256E-02
   0.2906232087E+00   0.3677704199E-01   0.9154837334E-04  -0.9865327870E-07   0.9154837334E-04  -0.9865327870E-07   0.3002907873E-01   0.7764052773E-02   0.0000000000E+00  -0.1837501231E-02
   0.3005736596E+00   0.3695192143E-01   0.9292981079E-04  -0.8963269513E-07   0.9292981079E-04  -0.8963269513E-07   0.3039556228E-01   0.7957658220E-02   0.0000000000E+00  -0.1507760461E-02
   0.2899011609E+00   0.2752060174E-01   0.9165392828E-04  -0.5163103195E-07   0.9165392828E-04  -0.5163103195E-07   0.2929431903E-01   0.7966026893E-02   0.0000000000E+00  -0.1415478874E-02
   0.3100503307E+00   0.2776652566E-01   0.9439482644E-04  -0.4101755298E-07   0.9439482644E-04  -0.4101755298E-07   0.3009616363E-01   0.8322976326E-02   0.0000000000E+00  -0.9185348572E-03
   0.3501999940E+00   0.6730697128E-01   0.1000000000E-03  -0.3622115101E-06   0.1000000000E-03  -0.3622115101E-06   0.3411398103E-01   0.7204962881E-02   0.0000000000E+00  -0.6656843312E-06
   0.3109286074E+00   0.4658978412E-01   0.9421720715E-04  -0.1490888357E-06   0.9421720715E-04  -0.1490888357E-06   0.3154482441E-01   0.7749742462E-02   0.0000000000E+00  -0.1411826433E-02
   0.3204621279E+00   0.3740484210E-01   0.9573494358E-04  -0.7849814336E-07   0.9573494358E-04  -0.7849814336E-07   0.3098315243E-01   0.8238072775E-02   0.0000000000E+00  -0.8907564310E-03
   0.3197668146E+00   0.1856036796E-01   0.9581180433E-04  -0.1522056647E-07   0.9581180433E-04  -0.1522056647E-07   0.2990413134E-01   0.8676880580E-02   0.0000000000E+00  -0.4770013689E-03
   0.3189415433E+00   0.0000000000E+00   0.9575963043E-04   0.0000000000E+00   0.9575963043E-04   0.0000000000E+00   0.2952649442E-01   0.8819106974E-02   0.0000000000E+00  -0.4470852710E-05
   0.3501999940E+00   0.2115235807E+00   0.1000000000E-03  -0.7441662597E-05   0.1000000000E-03  -0.7441662597E-05   0.5565226535E-01   0.5157859730E-03   0.0000000000E+00  -0.2689036725E-05
   0.3310978016E+00   0.2119657745E+00   0.9469181051E-04  -0.7544734750E-05   0.9469181051E-04  -0.7544734750E-05   0.5580248780E-01   0.4865776809E-03   0.0000000000E+00  -0.4937758659E-03
   0.3310329299E+00   0.1926895477E+00   0.9494944003E-04  -0.6045137807E-05   0.9494944003E-04  -0.6045137807E-05   0.5308795607E-01   0.1056168146E-02   0.0000000000E+00  -0.6598381462E-03
   0.3501999940E+00   0.1922957893E+00   0.1000000000E-03  -0.5953345895E-05   0.1000000000E-03  -0.5953345895E-05   0.5295521579E-01   0.1107416129E-02   0.0000000000E+00  -0.2839516652E-05
   0.3406489181E+00   0.2117447045E+00   0.9734853499E-04  -0.7476227610E-05   0.9734853499E-04  -0.7476227610E-05   0.5573085216E-01   0.5140084625E-03   0.0000000000E+00  -0.2465528535E-03
   0.3310653580E+00   0.2023277024E+00   0.9481648419E-04  -0.6778303725E-05   0.9481648419E-04  -0.6778303725E-05   0.5448979218E-01   0.7856695187E-03   0.0000000000E+00  -0.5749673095E-03
   0.3406164525E+00   0.1924927072E+00   0.9747723800E-04  -0.5983415428E-05   0.9747723800E-04  -0.5983415428E-05   0.5302647183E-01   0.1098062266E-02   0.0000000000E+00  -0.3298455532E-03
   0.3501999940E+00   0.2019097106E+00   0.1000000000E-03  -0.6680717113E-05   0.1000000000E-03  -0.6680717113E-05   0.5434907480E-01   0.8262361764E-03   0.0000000000E+00  -0.2335675616E-05
   0.3501999940E+00   0.2211373890E+00   0.1000000000E-03  -0.8232978844E-05   0.1000000000E-03  -0.8232978844E-05   0.5689563614E-01   0.3326506080E-03   0.0000000000E+00  -0.3082990668E-05
   0.3310375885E+00   0.2214971420E+00   0.9455174038E-04  -0.8332977997E-05   0.9455174038E-04  -0.8332977997E-05   0.5704466430E-01   0.3135400985E-03   0.0000000000E+00  -0.3912681497E-03
   0.3501999940E+00   0.1826817944E+00   0.1000000000E-03  -0.5262290988E-05   0.1000000000E-03  -0.5262290988E-05   0.5152370345E-01   0.1487301492E-02   0.0000000000E+00  -0.2189175056E-05
   0.3310007576E+00   0.1829972967E+00   0.9509030219E-04  -0.5344138319E-05   0.9509030219E-04  -0.5344138319E-05   0.5164052386E-01   0.1427164702E-02   0.0000000000E+00  -0.7284908322E-03
   0.2927306097E+00   0.2126676907E+00   0.8392837374E-04  -0.8179671672E-05   0.8392837374E-04  -0.8179671672E-05   0.5661080209E-01   0.3227834829E-03   0.0000000000E+00  -0.1323811203E-02
   0.2736609058E+00   0.2131258226E+00   0.7848839609E-04  -0.8770691205E-05   0.7848839609E-04  -0.8770691205E-05   0.5725317896E-01   0.1814802174E-03   0.0000000000E+00  -0.1578142174E-02
   0.2735145823E+00   0.1942580559E+00   0.7953413473E-04  -0.7223542376E-05   0.7953413473E-04  -0.7223542376E-05   0.5443034914E-01   0.4236763778E-03   0.0000000000E+00  -0.2163004321E-02
   0.2925883655E+00   0.1934335042E+00   0.8471924016E-04  -0.6640391464E-05   0.8471924016E-04  -0.6640391464E-05   0.5379560403E-01   0.7231287887E-03   0.0000000000E+00  -0.1796958692E-02
   0.2831957754E+00   0.2128968077E+00   0.8121720689E-04  -0.8449642082E-05   0.8121720689E-04  -0.8449642082E-05   0.5693515679E-01   0.2642257565E-03   0.0000000000E+00  -0.1448648798E-02
   0.2735877172E+00   0.2036919644E+00   0.7899761390E-04  -0.7984288712E-05   0.7899761390E-04  -0.7984288712E-05   0.5586687325E-01   0.3104607233E-03   0.0000000000E+00  -0.1862507632E-02
   0.2830514935E+00   0.1938458223E+00   0.8213676012E-04  -0.6907371276E-05   0.8213676012E-04  -0.6907371276E-05   0.5411590089E-01   0.5860152638E-03   0.0000000000E+00  -0.1983002403E-02
   0.2926594647E+00   0.2030506348E+00   0.8431233718E-04  -0.7395095571E-05   0.8431233718E-04  -0.7395095571E-05   0.5523831003E-01   0.5346232400E-03   0.0000000000E+00  -0.1554127366E-02
   0.1945607416E+00   0.5816782206E-01   0.7706379940E-04  -0.1147668126E-05   0.7706379940E-04  -0.1147668126E-05   0.2726687769E-01   0.2638167378E-03   0.0000000000E+00  -0.8991764552E-02
   0.2142537664E+00   0.5661203168E-01   0.7994371506E-04  -0.7757075877E-06   0.7994371506E-04  -0.7757075877E-06   0.2823632549E-01   0.2593537040E-02   0.0000000000E+00  -0.7211553308E-02
   0.1925884411E+00   0.4827465113E-01   0.7809306751E-04  -0.8288836252E-06   0.7809306751E-04  -0.8288836252E-06   0.2431786281E-01   0.8681923136E-03   0.0000000000E+00  -0.8173544956E-02
   0.2124803357E+00   0.4712232003E-01   0.8065982560E-04  -0.5448873357E-06   0.8065982560E-04  -0.5448873357E-06   0.2599044338E-01   0.3115545242E-02   0.0000000000E+00  -0.6491640448E-02
   0.2044072615E+00   0.5738997120E-01   0.7850773989E-04  -0.9404493223E-06   0.7850773989E-04  -0.9404493223E-06   0.2778250187E-01   0.1491823918E-02   0.0000000000E+00  -0.8036192530E-02
   0.7323790025E-01   0.1305407030E+00   0.2946547609E-04  -0.2567999378E-04   0.2946547609E-04  -0.2567999378E-04   0.7182724076E-01  -0.2523055159E-02   0.0000000000E+00   0.1665196751E-02
   0.5553729720E-01   0.1224169841E+00   0.2483779944E-04  -0.2923795028E-04   0.2483779944E-04  -0.2923795028E-04   0.7756871820E-01   0.3623885357E-02   0.0000000000E+00  -0.1348778873E-02
   0.8084862122E-01   0.1172319159E+00   0.3570040975E-04  -0.2208552815E-04   0.3570040975E-04  -0.2208552815E-04   0.6882487796E-01  -0.4940084744E-02   0.0000000000E+00  -0.3077350926E-02
   0.6438765614E-01   0.1264788957E+00   0.2717942122E-04  -0.2743316672E-04   0.2717942122E-04  -0.2743316672E-04   0.7466300542E-01   0.3912954012E-03   0.0000000000E+00   0.2775165269E-03
   0.5879477875E-01   0.1146767023E+00   0.2845607749E-04  -0.2761785755E-04   0.2845607749E-04  -0.2761785755E-04   0.7931263979E-01   0.4251990363E-02   0.0000000000E+00  -0.4883808241E-02
   0.7145071617E-01   0.1120843366E+00   0.3402603713E-04  -0.2395718665E-04   0.3402603713E-04  -0.2395718665E-04   0.7117465672E-01  -0.2119775935E-02   0.0000000000E+00  -0.5751222295E-02
   0.7704304530E-01   0.1238862553E+00   0.3247520068E-04  -0.2390984202E-04   0.3247520068E-04  -0.2390984202E-04   0.6987482812E-01  -0.3746742431E-02   0.0000000000E+00  -0.7512315483E-03
   0.5835550706E-01   0.2499217090E+00   0.1108672857E-04  -0.3914550578E-04   0.1108672857E-04  -0.3914550578E-04   0.4395387237E-01  -0.6617668226E-04   0.0000000000E+00   0.2353506474E-03
   0.6808214337E-01   0.2499247341E+00   0.1329408547E-04  -0.3763297073E-04   0.1329408547E-04  -0.3763297073E-04   0.4673076174E-01  -0.1788240351E-04   0.0000000000E+00   0.1245685352E-03
   0.5829027129E-01   0.2410819429E+00   0.1227029698E-04  -0.3855456731E-04   0.1227029698E-04  -0.3855456731E-04   0.4675446950E-01   0.8275741224E-04   0.0000000000E+00   0.2138919533E-02
   0.6813135174E-01   0.2320246088E+00   0.1577001873E-04  -0.3631460406E-04   0.1577001873E-04  -0.3631460406E-04   0.5106272906E-01   0.7257388141E-04   0.0000000000E+00   0.4052003267E-02
   0.4604083188E-01   0.1196090209E+00   0.2185199178E-04  -0.3120656079E-04   0.2185199178E-04  -0.3120656079E-04   0.8541042157E-01   0.7553219232E-02   0.0000000000E+00  -0.3025454372E-02
   0.7822967105E-01   0.2133545963E+00   0.2050662295E-04  -0.3301686029E-04   0.2050662295E-04  -0.3301686029E-04   0.5621753268E-01  -0.1658428581E-03   0.0000000000E+00   0.6645571133E-02
   0.7804131026E-01   0.1933718155E+00   0.2240522949E-04  -0.3127874432E-04   0.2240522949E-04  -0.3127874432E-04   0.5991455836E-01  -0.5249873706E-03   0.0000000000E+00   0.7796254090E-02
   0.6788281652E-01   0.2141030914E+00   0.1755881037E-04  -0.3494882157E-04   0.1755881037E-04  -0.3494882157E-04   0.5504345385E-01   0.3333279661E-03   0.0000000000E+00   0.6361973650E-02
   0.6682739178E-01   0.1959544436E+00   0.1884139221E-04  -0.3363122216E-04   0.1884139221E-04  -0.3363122216E-04   0.5899568030E-01   0.6917785569E-03   0.0000000000E+00   0.7578465967E-02
   0.7813552003E-01   0.2033631626E+00   0.2147246263E-04  -0.3216570239E-04   0.2147246263E-04  -0.3216570239E-04   0.5807012109E-01  -0.3505462958E-03   0.0000000000E+00   0.7228025794E-02
   0.4862913453E-01   0.2499189939E+00   0.9011316468E-05  -0.4050305125E-04   0.9011316468E-05  -0.4050305125E-04   0.4150000059E-01  -0.8108586634E-04   0.0000000000E+00   0.1032831328E-03
   0.3123731254E+00   0.1041654427E+00   0.9290571006E-04  -0.1314655417E-05   0.9290571006E-04  -0.1314655417E-05   0.3906192032E-01   0.4944140937E-02   0.0000000000E+00  -0.2054235127E-02
   0.1768556143E+00   0.2157670409E+00   0.4958616847E-04  -0.1627954285E-04   0.4958616847E-04  -0.1627954285E-04   0.6066857161E-01  -0.1038955938E-02   0.0000000000E+00   0.4350353694E-03
   0.1764371792E+00   0.2241135884E+00   0.4844857679E-04  -0.1713378948E-04   0.4844857679E-04  -0.1713378948E-04   0.6168224802E-01  -0.6745401571E-03   0.0000000000E+00   0.4365096377E-03
   0.1865946996E+00   0.2156802600E+00   0.5255879637E-04  -0.1510050636E-04   0.5255879637E-04  -0.1510050636E-04   0.6048599530E-01  -0.9155863459E-03   0.0000000000E+00  -0.7036681934E-04
   0.1959378808E+00   0.2239904471E+00   0.5448289094E-04  -0.1486793510E-04   0.5448289094E-04  -0.1486793510E-04   0.6151816004E-01  -0.4950426602E-03   0.0000000000E+00  -0.3496314407E-03
   0.1857803964E+00   0.2324239941E+00   0.5037619247E-04  -0.1679193780E-04   0.5037619247E-04  -0.1679193780E-04   0.6288202384E-01  -0.2340933270E-03   0.0000000000E+00   0.8342089879E-04
   0.3116914201E+00   0.1537224641E+00   0.9109905144E-04  -0.3621453003E-05   0.9109905144E-04  -0.3621453003E-05   0.4716095565E-01   0.2404891676E-02   0.0000000000E+00  -0.1803891112E-02
   0.3213261169E+00   0.1537814637E+00   0.9333093468E-04  -0.3536646780E-05   0.9333093468E-04  -0.3536646780E-05   0.4710025626E-01   0.2548221062E-02   0.0000000000E+00  -0.1359437259E-02
   0.3118364963E+00   0.1437555762E+00   0.9147117056E-04  -0.3058880925E-05   0.9147117056E-04  -0.3058880925E-05   0.4552056966E-01   0.2882071074E-02   0.0000000000E+00  -0.1891079713E-02
   0.3116775842E+00   0.1734283852E+00   0.9043959700E-04  -0.4865914281E-05   0.9043959700E-04  -0.4865914281E-05   0.5034325912E-01   0.1593767805E-02   0.0000000000E+00  -0.1561671279E-02
   0.3213231116E+00   0.1733667004E+00   0.9284182231E-04  -0.4758278992E-05   0.9284182231E-04  -0.4758278992E-05   0.5024445401E-01   0.1709211853E-02   0.0000000000E+00  -0.1180273604E-02
   0.3116844951E+00   0.1635754611E+00   0.9076605481E-04  -0.4221951722E-05   0.9076605481E-04  -0.4221951722E-05   0.4876925111E-01   0.2003816808E-02   0.0000000000E+00  -0.1680354651E-02
   0.2237327930E+00   0.2499702977E+00   0.6083847918E-04  -0.1485115747E-04   0.6083847918E-04  -0.1485115747E-04   0.6521435090E-01   0.2627602566E-04   0.0000000000E+00  -0.1359078851E-04
   0.2247483841E+00   0.2320925194E+00   0.6260557279E-04  -0.1306581004E-04   0.6260557279E-04  -0.1306581004E-04   0.6201547413E-01  -0.8967032568E-04   0.0000000000E+00  -0.7513793666E-03
   0.2789915033E+00   0.1827778581E-01   0.9038165367E-04  -0.2839540700E-07   0.9038165367E-04  -0.2839540700E-07   0.2815839176E-01   0.7976720033E-02   0.0000000000E+00  -0.1183594623E-02
   0.2772639534E+00   0.0000000000E+00   0.9030819613E-04   0.0000000000E+00   0.9030819613E-04   0.0000000000E+00   0.2760988929E-01   0.8114898391E-02   0.0000000000E+00  -0.1042614986E-04
   0.2925796684E+00   0.2220689200E+00   0.8351471812E-04  -0.8978488572E-05   0.8351471812E-04  -0.8978488572E-05   0.5792146780E-01   0.2077987204E-03   0.0000000000E+00  -0.1043476918E-02
   0.2734176085E+00   0.2223852962E+00   0.7792625369E-04  -0.9576916848E-05   0.7792625369E-04  -0.9576916848E-05   0.5860533641E-01   0.1165729630E-03   0.0000000000E+00  -0.1241465325E-02
   0.1167191937E+00   0.2499420305E+00   0.2626334256E-04  -0.2898476747E-04   0.2626334256E-04  -0.2898476747E-04   0.5947765401E-01   0.1141932279E-03   0.0000000000E+00   0.1681885137E-03
   0.1264472852E+00   0.2499454805E+00   0.2919610475E-04  -0.2725976589E-04   0.2919610475E-04  -0.2725976589E-04   0.6120434831E-01   0.8619680266E-04   0.0000000000E+00   0.7004108454E-04
   0.1171480317E+00   0.2411622528E+00   0.2788233854E-04  -0.2812710286E-04   0.2788233854E-04  -0.2812710286E-04   0.5897336111E-01  -0.1292669505E-03   0.0000000000E+00   0.1627029245E-02
   0.7082192214E-01   0.7066675021E-01   0.5562037015E-04  -0.2196559485E-04   0.5562037015E-04  -0.2196559485E-04   0.2099897019E-01   0.1869136117E-01   0.0000000000E+00  -0.1865503683E-01
   0.8399742164E-01   0.7963076240E-01   0.5223262167E-04  -0.1710280002E-04   0.5223262167E-04  -0.1710280002E-04   0.4125241027E-01  -0.2496859527E-02   0.0000000000E+00  -0.1488939510E-01
   0.7740886917E-01   0.7514943264E-01   0.5352698727E-04  -0.1919602922E-04   0.5352698727E-04  -0.1919602922E-04   0.3174553219E-01   0.6723084920E-02   0.0000000000E+00  -0.1683670864E-01
   0.7800565323E-01   0.8686398289E-01   0.4710831404E-04  -0.1953010481E-04   0.4710831404E-04  -0.1953010481E-04   0.5186277761E-01   0.7907937249E-03   0.0000000000E+00  -0.1508784334E-01
   0.6353954062E-01   0.7725224489E-01   0.5010435866E-04  -0.2440140356E-04   0.5010435866E-04  -0.2440140356E-04   0.3857954333E-01   0.2414344639E-01   0.0000000000E+00  -0.2957172244E-01
   0.2350728898E+00   0.2142895551E+00   0.6721589192E-04  -0.1072444319E-04   0.6721589192E-04  -0.1072444319E-04   0.5884577532E-01  -0.2304502623E-03   0.0000000000E+00  -0.1549978963E-02
   0.2153480313E+00   0.2236848489E+00   0.6046712929E-04  -0.1302305979E-04   0.6046712929E-04  -0.1302305979E-04   0.6098893675E-01  -0.3154042744E-03   0.0000000000E+00  -0.8893973120E-03
   0.2253688840E+00   0.2147016883E+00   0.6431202288E-04  -0.1141884130E-04   0.6431202288E-04  -0.1141884130E-04   0.5925941461E-01  -0.3560978114E-03   0.0000000000E+00  -0.1368232850E-02
   0.2347691330E+00   0.2231092027E+00   0.6640551175E-04  -0.1153967208E-04   0.6640551175E-04  -0.1153967208E-04   0.6021420925E-01  -0.1501617074E-03   0.0000000000E+00  -0.1205727610E-02
   0.1848182652E+00   0.2499627826E+00   0.4802512249E-04  -0.1860868385E-04   0.4802512249E-04  -0.1860868385E-04   0.6620248741E-01   0.6348262395E-04   0.0000000000E+00   0.6394580858E-05
   0.1775425351E+00   0.1998841919E+00   0.5172054959E-04  -0.1464753983E-04   0.5172054959E-04  -0.1464753983E-04   0.5896246579E-01  -0.2014195365E-02   0.0000000000E+00   0.5269704018E-04
   0.1586157573E+00   0.1997530669E+00   0.4606915057E-04  -0.1718552952E-04   0.4606915057E-04  -0.1718552952E-04   0.5953102342E-01  -0.2488515684E-02   0.0000000000E+00   0.1457063116E-02
   0.1597784338E+00   0.1838802854E+00   0.4848991671E-04  -0.1536281833E-04   0.4848991671E-04  -0.1536281833E-04   0.5848861783E-01  -0.3818988329E-02   0.0000000000E+00   0.6503819824E-03
   0.1779195516E+00   0.1845612031E+00   0.5374828037E-04  -0.1307096475E-04   0.5374828037E-04  -0.1307096475E-04   0.5742242363E-01  -0.3037408383E-02   0.0000000000E+00  -0.7115964371E-03
   0.1680791623E+00   0.1998187479E+00   0.4890314475E-04  -0.1586106119E-04   0.4890314475E-04  -0.1586106119E-04   0.5923704290E-01  -0.2279237359E-02   0.0000000000E+00   0.7124465551E-03
   0.1591970667E+00   0.1918166654E+00   0.4726883336E-04  -0.1628331780E-04   0.4726883336E-04  -0.1628331780E-04   0.5902407758E-01  -0.3143881054E-02   0.0000000000E+00   0.1074423521E-02
   0.1688490220E+00   0.1842208482E+00   0.5113350698E-04  -0.1416489799E-04   0.5113350698E-04  -0.1416489799E-04   0.5794836503E-01  -0.3451205380E-02   0.0000000000E+00  -0.6848374816E-04
   0.1777310155E+00   0.1922226876E+00   0.5272424180E-04  -0.1386419870E-04   0.5272424180E-04  -0.1386419870E-04   0.5819548054E-01  -0.2527304290E-02   0.0000000000E+00  -0.3112524768E-03
   0.2544445885E+00   0.2136991477E+00   0.7292077428E-04  -0.9603669008E-05   0.7292077428E-04  -0.9603669008E-05   0.5802115128E-01  -0.3143420737E-05   0.0000000000E+00  -0.1668904687E-02
   0.2541423091E+00   0.2227503962E+00   0.7222356669E-04  -0.1041538973E-04   0.7222356669E-04  -0.1041538973E-04   0.5939718555E-01  -0.2935122081E-05   0.0000000000E+00  -0.1308148430E-02
   0.2640527836E+00   0.2134125405E+00   0.7571531221E-04  -0.9155746875E-05   0.7571531221E-04  -0.9155746875E-05   0.5763966266E-01   0.9879360019E-04   0.0000000000E+00  -0.1623306602E-02
   0.3118901426E+00   0.2123169665E+00   0.8932629273E-04  -0.7782736175E-05   0.8932629273E-04  -0.7782736175E-05   0.5612300107E-01   0.4237082989E-03   0.0000000000E+00  -0.9477697675E-03
   0.3118450899E+00   0.1930206308E+00   0.8986692825E-04  -0.6264095692E-05   0.8986692825E-04  -0.6264095692E-05   0.5336123641E-01   0.9311962130E-03   0.0000000000E+00  -0.1273358669E-02
   0.3118676005E+00   0.2026688384E+00   0.8958877034E-04  -0.7007323832E-05   0.8958877034E-04  -0.7007323832E-05   0.5478335614E-01   0.6904114309E-03   0.0000000000E+00  -0.1107023616E-02
   0.3214390191E+00   0.1928551235E+00   0.9241252838E-04  -0.6137256380E-05   0.9241252838E-04  -0.6137256380E-05   0.5322928143E-01   0.1010286178E-02   0.0000000000E+00  -0.9660496737E-03
   0.3214939813E+00   0.2121414079E+00   0.9201366983E-04  -0.7645067399E-05   0.9201366983E-04  -0.7645067399E-05   0.5596603636E-01   0.4678495208E-03   0.0000000000E+00  -0.7191004571E-03
   0.3023104041E+00   0.2124923716E+00   0.8663405089E-04  -0.7959703837E-05   0.8663405089E-04  -0.7959703837E-05   0.5637012591E-01   0.3859613401E-03   0.0000000000E+00  -0.1133606607E-02
   0.3022167266E+00   0.1932271084E+00   0.8729980012E-04  -0.6431791515E-05   0.8729980012E-04  -0.6431791515E-05   0.5358271356E-01   0.8432664805E-03   0.0000000000E+00  -0.1535148710E-02
   0.1077009554E+00   0.2321879669E+00   0.2650720857E-04  -0.2908204924E-04   0.2650720857E-04  -0.2908204924E-04   0.5745729120E-01  -0.3018721288E-03   0.0000000000E+00   0.3370220676E-02
   0.1069913016E+00   0.2499385049E+00   0.2342981992E-04  -0.3074756465E-04   0.2342981992E-04  -0.3074756465E-04   0.5719241044E-01   0.6889599660E-04   0.0000000000E+00   0.9684087375E-04
   0.6714219963E-01   0.1440140159E+00   0.2464461558E-04  -0.2866252645E-04   0.2464461558E-04  -0.2866252645E-04   0.7063462231E-01   0.1613778189E-03   0.0000000000E+00   0.5068943290E-02
   0.6215881781E-01   0.1545777665E+00   0.2137310703E-04  -0.3083572857E-04   0.2137310703E-04  -0.3083572857E-04   0.6902471181E-01   0.1551418141E-02   0.0000000000E+00   0.6822063486E-02
   0.5911806539E-01   0.1413100321E+00   0.2222664300E-04  -0.3022895575E-04   0.2222664300E-04  -0.3022895575E-04   0.7310442995E-01   0.2261486230E-02   0.0000000000E+00   0.4806980528E-02
   0.6465039230E-01   0.1492958322E+00   0.2295064768E-04  -0.2977490137E-04   0.2295064768E-04  -0.2977490137E-04   0.7004574565E-01   0.9882394441E-03   0.0000000000E+00   0.5987316550E-02
   0.5561981932E-01   0.1542853657E+00   0.1916580937E-04  -0.3217466150E-04   0.1916580937E-04  -0.3217466150E-04   0.6977939782E-01   0.3490876469E-02   0.0000000000E+00   0.6602722917E-02
   0.3547070151E-01   0.1262357584E+00   0.1582120312E-04  -0.3391981738E-04   0.1582120312E-04  -0.3391981738E-04   0.8776701857E-01   0.1092523258E-01   0.0000000000E+00  -0.1074501471E-02
   0.5331510509E-01   0.1305115095E+00   0.2206964611E-04  -0.3052376522E-04   0.2206964611E-04  -0.3052376522E-04   0.7724264989E-01   0.4815373788E-02   0.0000000000E+00   0.1606497344E-02
   0.7742218503E-01   0.6340060005E-01   0.6056866491E-04  -0.1936592624E-04   0.6056866491E-04  -0.1936592624E-04   0.8359361436E-02   0.9942008337E-02   0.0000000000E+00  -0.9232258267E-02
   0.9011680695E-01   0.7157450403E-01   0.5738842314E-04  -0.1453863440E-04   0.5738842314E-04  -0.1453863440E-04   0.3032435645E-01  -0.6066565745E-02   0.0000000000E+00  -0.1276161695E-01
   0.1526862832E+00   0.3951265124E-01   0.7519862292E-04  -0.1533779206E-05   0.7519862292E-04  -0.1533779206E-05   0.1574648730E-01  -0.5055854489E-02   0.0000000000E+00  -0.1049438145E-01
   0.1354978331E+00   0.4589271773E-01   0.7232002508E-04  -0.3010736007E-05   0.7232002508E-04  -0.3010736007E-05   0.1563250467E-01  -0.9997739349E-02   0.0000000000E+00  -0.1202216017E-01
   0.1492556626E+00   0.3024620036E-01   0.7644280722E-04  -0.1219870851E-05   0.7644280722E-04  -0.1219870851E-05   0.1131936023E-01  -0.6214994456E-02   0.0000000000E+00  -0.8507856307E-02
   0.1440921979E+00   0.4270290624E-01   0.7383296796E-04  -0.2160482017E-05   0.7383296796E-04  -0.2160482017E-05   0.1548508283E-01  -0.8061756233E-02   0.0000000000E+00  -0.1125687982E-01
   0.1286901416E+00   0.3599976272E-01   0.7405277829E-04  -0.2880191818E-05   0.7405277829E-04  -0.2880191818E-05   0.9173503817E-02  -0.1336201306E-01   0.0000000000E+00  -0.9293498169E-02
   0.9584202956E-01   0.2901172067E-01   0.7399713065E-04  -0.8373563713E-05   0.7399713065E-04  -0.8373563713E-05  -0.4903849418E-02  -0.3978502550E-01   0.0000000000E+00   0.1029765848E-01
   0.1150352455E+00   0.3609616702E-01   0.7319177268E-04  -0.4628588734E-05   0.7319177268E-04  -0.4628588734E-05   0.4662014852E-02  -0.1962148104E-01   0.0000000000E+00  -0.6827653034E-02
   0.1626586664E+00   0.0000000000E+00   0.7933618408E-04   0.0000000000E+00   0.7933618408E-04   0.0000000000E+00   0.9412205121E-02  -0.1580591537E-02   0.0000000000E+00  -0.9827761860E-04
   0.1665874695E+00   0.1949790484E-01   0.7875874850E-04  -0.4256819801E-06   0.7875874850E-04  -0.4256819801E-06   0.1253346356E-01  -0.1078111854E-02   0.0000000000E+00  -0.5303515637E-02
   0.1646234450E+00   0.9748952757E-02   0.7923249155E-04  -0.2126613419E-06   0.7923249155E-04  -0.2126613419E-06   0.1054798545E-01  -0.1431884543E-02   0.0000000000E+00  -0.2646397037E-02
   0.1562059528E+00   0.2023892994E-01   0.7806741571E-04  -0.6139280871E-06   0.7806741571E-04  -0.6139280871E-06   0.1020609871E-01  -0.3574412634E-02   0.0000000000E+00  -0.5801057656E-02
   0.1522410749E+00   0.0000000000E+00   0.7886895296E-04   0.0000000000E+00   0.7886895296E-04   0.0000000000E+00   0.6715009893E-02  -0.4338752297E-02   0.0000000000E+00  -0.1936681329E-03
   0.2147498096E+00   0.0000000000E+00   0.8323629893E-04   0.0000000000E+00   0.8323629893E-04   0.0000000000E+00   0.2083786721E-01   0.5345545003E-02   0.0000000000E+00  -0.3464305401E-04
   0.2756148203E+00   0.9272174326E-01   0.8670617371E-04  -0.1208071222E-05   0.8670617371E-04  -0.1208071222E-05   0.3709250032E-01   0.4406624408E-02   0.0000000000E+00  -0.4094817251E-02
   0.2938074274E+00   0.9348844278E-01   0.8991872422E-04  -0.1082609095E-05   0.8991872422E-04  -0.1082609095E-05   0.3732738623E-01   0.5060442052E-02   0.0000000000E+00  -0.3064867039E-02
   0.2939477467E+00   0.1128452643E+00   0.8901483334E-04  -0.1773366315E-05   0.8901483334E-04  -0.1773366315E-05   0.4050095345E-01   0.3990986016E-02   0.0000000000E+00  -0.3059682453E-02
   0.2760750558E+00   0.1113707039E+00   0.8558737738E-04  -0.1923030653E-05   0.8558737738E-04  -0.1923030653E-05   0.4035784253E-01   0.3385173771E-02   0.0000000000E+00  -0.4029718228E-02
   0.2847111351E+00   0.9310511010E-01   0.8831055096E-04  -0.1138648114E-05   0.8831055096E-04  -0.1138648114E-05   0.3721998696E-01   0.4766775545E-02   0.0000000000E+00  -0.3568551040E-02
   0.2938776157E+00   0.1031669016E+00   0.8947383323E-04  -0.1403706793E-05   0.8947383323E-04  -0.1403706793E-05   0.3888821530E-01   0.4518075822E-02   0.0000000000E+00  -0.3065647760E-02
   0.2850113962E+00   0.1121080011E+00   0.8729859703E-04  -0.1839433740E-05   0.8729859703E-04  -0.1839433740E-05   0.4043776248E-01   0.3717369334E-02   0.0000000000E+00  -0.3538891143E-02
   0.2758449513E+00   0.1020462661E+00   0.8615363435E-04  -0.1542471450E-05   0.8615363435E-04  -0.1542471450E-05   0.3870844237E-01   0.3888651236E-02   0.0000000000E+00  -0.4064349141E-02
   0.2930563137E+00   0.7443747623E-01   0.9063135276E-04  -0.5925370935E-06   0.9063135276E-04  -0.5925370935E-06   0.3444343456E-01   0.6095976742E-02   0.0000000000E+00  -0.2885150016E-02
   0.2934319063E+00   0.8396300035E-01   0.9028512642E-04  -0.8153241016E-06   0.9028512642E-04  -0.8153241016E-06   0.3583830972E-01   0.5563880249E-02   0.0000000000E+00  -0.2979186824E-02
   0.3025276391E+00   0.7479096011E-01   0.9216506906E-04  -0.5634944880E-06   0.9216506906E-04  -0.5634944880E-06   0.3464318998E-01   0.6329402067E-02   0.0000000000E+00  -0.2386408575E-02
   0.3030912477E+00   0.9394353568E-01   0.9156235640E-04  -0.1039660454E-05   0.9156235640E-04  -0.1039660454E-05   0.3745519345E-01   0.5303892895E-02   0.0000000000E+00  -0.2547169647E-02
   0.3031594593E+00   0.1133887401E+00   0.9079964342E-04  -0.1713470029E-05   0.9079964342E-04  -0.1713470029E-05   0.4056749940E-01   0.4234437506E-02   0.0000000000E+00  -0.2556131580E-02
   0.1771990684E+00   0.2078256007E+00   0.5065019384E-04  -0.1546763730E-04   0.5065019384E-04  -0.1546763730E-04   0.5977450975E-01  -0.1542071845E-02   0.0000000000E+00   0.2601226213E-03
   0.1671831504E+00   0.2158433905E+00   0.4662817884E-04  -0.1756273840E-04   0.4662817884E-04  -0.1756273840E-04   0.6065869241E-01  -0.1180125018E-02   0.0000000000E+00   0.1004542230E-02
   0.1580632228E+00   0.2078362900E+00   0.4486991156E-04  -0.1807997583E-04   0.4486991156E-04  -0.1807997583E-04   0.6005400154E-01  -0.1887197167E-02   0.0000000000E+00   0.1574192240E-02
   0.1767279978E+00   0.1925522144E-01   0.7947641942E-04  -0.3089295346E-06   0.7947641942E-04  -0.3089295346E-06   0.1487683765E-01   0.7355041289E-03   0.0000000000E+00  -0.4669912248E-02
   0.1730764932E+00   0.0000000000E+00   0.7991362339E-04   0.0000000000E+00   0.7991362339E-04   0.0000000000E+00   0.1232845129E-01   0.5913263660E-03   0.0000000000E+00  -0.7674324171E-04
   0.1712430322E+00   0.3888038985E-01   0.7699711542E-04  -0.9198232454E-06   0.7699711542E-04  -0.9198232454E-06   0.1874940479E-01  -0.1468392537E-02   0.0000000000E+00  -0.9022899577E-02
   0.1689154940E+00   0.2918919074E-01   0.7799950934E-04  -0.6505776574E-06   0.7799950934E-04  -0.6505776574E-06   0.1533994993E-01  -0.1309142354E-02   0.0000000000E+00  -0.7140843208E-02
   0.1809294261E+00   0.3863092110E-01   0.7797955915E-04  -0.7209982356E-06   0.7797955915E-04  -0.7209982356E-06   0.2015008219E-01   0.1009973296E-03   0.0000000000E+00  -0.8060908161E-02
   0.2931402965E+00   0.1327439692E+00   0.8784476916E-04  -0.2697409786E-05   0.8784476916E-04  -0.2697409786E-05   0.4387796983E-01   0.2930191224E-02   0.0000000000E+00  -0.2924389751E-02
   0.3025609032E+00   0.1332662958E+00   0.8984312238E-04  -0.2609606811E-05   0.8984312238E-04  -0.2609606811E-05   0.4388303383E-01   0.3181169806E-02   0.0000000000E+00  -0.2448594863E-02
   0.2935440195E+00   0.1227946651E+00   0.8843627262E-04  -0.2209472501E-05   0.8843627262E-04  -0.2209472501E-05   0.4218368234E-01   0.3460647491E-02   0.0000000000E+00  -0.2992988198E-02
   0.5194582721E-01   0.1832980610E+00   0.1537765662E-04  -0.3521402046E-04   0.1537765662E-04  -0.3521402046E-04   0.6165492424E-01   0.3022872549E-02   0.0000000000E+00   0.7611112752E-02
   0.4323963257E-01   0.1837506187E+00   0.1272278430E-04  -0.3661763698E-04   0.1272278430E-04  -0.3661763698E-04   0.6133692779E-01   0.4401046373E-02   0.0000000000E+00   0.6774037035E-02
   0.5377978024E-01   0.1909177527E+00   0.1539256855E-04  -0.3549813788E-04   0.1539256855E-04  -0.3549813788E-04   0.5963612994E-01   0.2352420424E-02   0.0000000000E+00   0.7411063884E-02
   0.5045243163E-01   0.1685233751E+00   0.1603271326E-04  -0.3433043561E-04   0.1603271326E-04  -0.3433043561E-04   0.6584161305E-01   0.4222900514E-02   0.0000000000E+00   0.7522227283E-02
   0.5119909000E-01   0.1759107279E+00   0.1568545090E-04  -0.3477104353E-04   0.1568545090E-04  -0.3477104353E-04   0.6363925421E-01   0.3602405814E-02   0.0000000000E+00   0.7504773555E-02
   0.4193202301E-01   0.1685279357E+00   0.1329130595E-04  -0.3576063160E-04   0.1329130595E-04  -0.3576063160E-04   0.6600668633E-01   0.6049743191E-02   0.0000000000E+00   0.6682100852E-02
   0.4976653159E-01   0.1612582291E+00   0.1644829507E-04  -0.3388844386E-04   0.1644829507E-04  -0.3388844386E-04   0.6805799882E-01   0.4758690428E-02   0.0000000000E+00   0.7004452188E-02
   0.2919221460E+00   0.5550527429E-01   0.9117700850E-04  -0.2745027126E-06   0.9117700850E-04  -0.2745027126E-06   0.3195742107E-01   0.7026274984E-02   0.0000000000E+00  -0.2480051681E-02
   0.2924892744E+00   0.6497141598E-01   0.9091918069E-04  -0.4141121731E-06   0.9091918069E-04  -0.4141121731E-06   0.3312957831E-01   0.6540662768E-02   0.0000000000E+00  -0.2687429494E-02
   0.3016275987E+00   0.5577899485E-01   0.9262187388E-04  -0.2571768520E-06   0.9262187388E-04  -0.2571768520E-06   0.3224253875E-01   0.7240864763E-02   0.0000000000E+00  -0.2042860782E-02
   0.2918383030E+00   0.1532864199E+00   0.8649350734E-04  -0.3870570752E-05   0.8649350734E-04  -0.3870570752E-05   0.4736893950E-01   0.1994036123E-02   0.0000000000E+00  -0.2656661043E-02
   0.2924892933E+00   0.1430152459E+00   0.8717313950E-04  -0.3258053685E-05   0.8717313950E-04  -0.3258053685E-05   0.4564139295E-01   0.2468592016E-02   0.0000000000E+00  -0.2788522927E-02
   0.3017648831E+00   0.1535044820E+00   0.8879955548E-04  -0.3729489433E-05   0.8879955548E-04  -0.3729489433E-05   0.4727258968E-01   0.2230585245E-02   0.0000000000E+00  -0.2229672877E-02
   0.2707442640E+00   0.3669228412E-01   0.8884049014E-04  -0.1266383341E-06   0.8884049014E-04  -0.1266383341E-06   0.2901387414E-01   0.7201595492E-02   0.0000000000E+00  -0.2560371862E-02
   0.2508623656E+00   0.3681389883E-01   0.8622080257E-04  -0.1718859765E-06   0.8622080257E-04  -0.1718859765E-06   0.2768374259E-01   0.6396939026E-02   0.0000000000E+00  -0.3409569028E-02
   0.2697742732E+00   0.2749188376E-01   0.8899711391E-04  -0.7011817687E-07   0.8899711391E-04  -0.7011817687E-07   0.2815006925E-01   0.7421193539E-02   0.0000000000E+00  -0.1980264678E-02
   0.2608032875E+00   0.3675309635E-01   0.8751725822E-04  -0.1468255231E-06   0.8751725822E-04  -0.1468255231E-06   0.2835572625E-01   0.6819331354E-02   0.0000000000E+00  -0.2960960317E-02
   0.2496410347E+00   0.2757813558E-01   0.8645084549E-04  -0.9985790054E-07   0.8645084549E-04  -0.9985790054E-07   0.2661566820E-01   0.6644435755E-02   0.0000000000E+00  -0.2646779298E-02
   0.2337004734E+00   0.5569907130E-01   0.8272569694E-04  -0.5539506202E-06   0.8272569694E-04  -0.5539506202E-06   0.2929039022E-01   0.4288762418E-02   0.0000000000E+00  -0.5726214026E-02
   0.2532083665E+00   0.5532663882E-01   0.8551674012E-04  -0.4162388788E-06   0.8551674012E-04  -0.4162388788E-06   0.3033225087E-01   0.5526910298E-02   0.0000000000E+00  -0.4476972148E-02
   0.2322431439E+00   0.4637341656E-01   0.8324944373E-04  -0.3777214978E-06   0.8324944373E-04  -0.3777214978E-06   0.2753817139E-01   0.4754083593E-02   0.0000000000E+00  -0.5095739181E-02
   0.2408239890E+00   0.3693079408E-01   0.8493900431E-04  -0.2038587897E-06   0.8493900431E-04  -0.2038587897E-06   0.2684428968E-01   0.5862011797E-02   0.0000000000E+00  -0.3889048172E-02
   0.2520354345E+00   0.4607030711E-01   0.8590275636E-04  -0.2758430823E-06   0.8590275636E-04  -0.2758430823E-06   0.2891009207E-01   0.5935270854E-02   0.0000000000E+00  -0.3951371842E-02
   0.2434544064E+00   0.5551286888E-01   0.8411420839E-04  -0.4782104350E-06   0.8411420839E-04  -0.4782104350E-06   0.2982910852E-01   0.4947831568E-02   0.0000000000E+00  -0.5065574242E-02
   0.2806837006E+00   0.3673466436E-01   0.9018379492E-04  -0.1110676334E-06   0.9018379492E-04  -0.1110676334E-06   0.2952592645E-01   0.7497207736E-02   0.0000000000E+00  -0.2183645449E-02
   0.3117613102E+00   0.1832245533E+00   0.9014707826E-04  -0.5545827475E-05   0.9014707826E-04  -0.5545827475E-05   0.5188255250E-01   0.1271463783E-02   0.0000000000E+00  -0.1413129493E-02
   0.2447587550E+00   0.2139944277E+00   0.7007997514E-04  -0.1012564330E-04   0.7007997514E-04  -0.1012564330E-04   0.5843447800E-01  -0.1099224439E-03   0.0000000000E+00  -0.1612888144E-02
   0.2350030594E+00   0.1970361280E+00   0.6868222387E-04  -0.9210981484E-05   0.6868222387E-04  -0.9210981484E-05   0.5624386477E-01  -0.4242624910E-03   0.0000000000E+00  -0.2208881120E-02
   0.2543693282E+00   0.1956589994E+00   0.7419758477E-04  -0.8075319624E-05   0.7419758477E-04  -0.8075319624E-05   0.5528401900E-01   0.3379600979E-04   0.0000000000E+00  -0.2317303365E-02
   0.2446862249E+00   0.1963476403E+00   0.7145546099E-04  -0.8604861007E-05   0.7145546099E-04  -0.8604861007E-05   0.5576336190E-01  -0.1873957163E-03   0.0000000000E+00  -0.2271766078E-02
   0.2544069157E+00   0.2046790854E+00   0.7354533844E-04  -0.8829792888E-05   0.7354533844E-04  -0.8829792888E-05   0.5666474721E-01   0.1839923771E-04   0.0000000000E+00  -0.1982006261E-02
   0.2350379561E+00   0.2056628613E+00   0.6793602645E-04  -0.9961361182E-05   0.6793602645E-04  -0.9961361182E-05   0.5754109910E-01  -0.3299773007E-03   0.0000000000E+00  -0.1866644736E-02
   0.1597069093E+00   0.7268898547E-01   0.6924764314E-04  -0.3336065928E-05   0.6924764314E-04  -0.3336065928E-05   0.3176954334E-01  -0.6544955486E-02   0.0000000000E+00  -0.1234507003E-01
   0.1738845947E+00   0.6065805080E-01   0.7383232860E-04  -0.1833701129E-05   0.7383232860E-04  -0.1833701129E-05   0.2697129693E-01  -0.2962179305E-02   0.0000000000E+00  -0.1105052197E-01
   0.1842627605E+00   0.8233375731E-01   0.7163374747E-04  -0.2775946631E-05   0.7163374747E-04  -0.2775946631E-05   0.3501405301E-01  -0.3273373832E-02   0.0000000000E+00  -0.1028531230E-01
   0.1695352444E+00   0.8994594809E-01   0.6737318760E-04  -0.4165655974E-05   0.6737318760E-04  -0.4165655974E-05   0.3854074301E-01  -0.6062811289E-02   0.0000000000E+00  -0.1078922813E-01
   0.1667959982E+00   0.6667368838E-01   0.7165957526E-04  -0.2499760579E-05   0.7165957526E-04  -0.2499760579E-05   0.2915471757E-01  -0.4881172277E-02   0.0000000000E+00  -0.1173835005E-01
   0.1790735627E+00   0.7149595252E-01   0.7267586813E-04  -0.2278740379E-05   0.7267586813E-04  -0.2278740379E-05   0.3119824250E-01  -0.3086017039E-02   0.0000000000E+00  -0.1072048479E-01
   0.1768991264E+00   0.8613996783E-01   0.6956920208E-04  -0.3413236053E-05   0.6956920208E-04  -0.3413236053E-05   0.3672130233E-01  -0.4699284045E-02   0.0000000000E+00  -0.1058649682E-01
   0.1646209175E+00   0.8131748649E-01   0.6823076215E-04  -0.3739154991E-05   0.6823076215E-04  -0.3739154991E-05   0.3553446206E-01  -0.6196637393E-02   0.0000000000E+00  -0.1168165808E-01
   0.3020544713E+00   0.2313618074E+00   0.8596815992E-04  -0.9573311969E-05   0.8596815992E-04  -0.9573311969E-05   0.5885237156E-01   0.8642533164E-04   0.0000000000E+00  -0.6540746057E-03
   0.3117851032E+00   0.2217852359E+00   0.8905008056E-04  -0.8574064662E-05   0.8905008056E-04  -0.8574064662E-05   0.5739071314E-01   0.2727240004E-03   0.0000000000E+00  -0.7491759895E-03
   0.3015595868E+00   0.2499774914E+00   0.8534838136E-04  -0.1125429987E-04   0.8534838136E-04  -0.1125429987E-04   0.6096908450E-01  -0.2595477601E-04   0.0000000000E+00  -0.1413597813E-04
   0.9889153942E-01   0.2141510938E+00   0.2632936094E-04  -0.2914210104E-04   0.2632936094E-04  -0.2914210104E-04   0.5790152500E-01  -0.9382959512E-03   0.0000000000E+00   0.5876637955E-02
   0.9835859522E-01   0.2230722161E+00   0.2507561134E-04  -0.3004793994E-04   0.2507561134E-04  -0.3004793994E-04   0.5692843048E-01  -0.5911386829E-03   0.0000000000E+00   0.4869247332E-02
   0.1089181560E+00   0.2146740096E+00   0.2920049023E-04  -0.2726220050E-04   0.2920049023E-04  -0.2726220050E-04   0.5856525269E-01  -0.1216572706E-02   0.0000000000E+00   0.5137511713E-02
   0.7813406380E-01   0.2225809016E+00   0.1949265159E-04  -0.3380720375E-04   0.1949265159E-04  -0.3380720375E-04   0.5449442394E-01  -0.1090902931E-03   0.0000000000E+00   0.5441071150E-02
   0.8856055861E-01   0.2137528075E+00   0.2339470609E-04  -0.3109825785E-04   0.2339470609E-04  -0.3109825785E-04   0.5704697659E-01  -0.6557320735E-03   0.0000000000E+00   0.6191230438E-02
   0.1398266082E+00   0.1993459491E+00   0.4044057992E-04  -0.2010793881E-04   0.4044057992E-04  -0.2010793881E-04   0.5988524056E-01  -0.2758363573E-02   0.0000000000E+00   0.3107516936E-02
   0.1209577925E+00   0.1985925065E+00   0.3480573591E-04  -0.2339126643E-04   0.3480573591E-04  -0.2339126643E-04   0.6000651568E-01  -0.2682840113E-02   0.0000000000E+00   0.4857875975E-02
   0.1390587135E+00   0.2075573104E+00   0.3914774836E-04  -0.2107527889E-04   0.3914774836E-04  -0.2107527889E-04   0.6000611591E-01  -0.2074873902E-02   0.0000000000E+00   0.3098783637E-02
   0.1199513263E+00   0.2068946540E+00   0.3346214647E-04  -0.2442152103E-04   0.3346214647E-04  -0.2442152103E-04   0.5962274309E-01  -0.1998868322E-02   0.0000000000E+00   0.4708946657E-02
   0.1303922077E+00   0.1989693135E+00   0.3762484384E-04  -0.2170674896E-04   0.3762484384E-04  -0.2170674896E-04   0.5992832875E-01  -0.2811082110E-02   0.0000000000E+00   0.3925188204E-02
   0.2253441808E+00   0.1977036091E+00   0.6588542229E-04  -0.9897473905E-05   0.6588542229E-04  -0.9897473905E-05   0.5674311096E-01  -0.6826785460E-03   0.0000000000E+00  -0.2014611379E-02
   0.2183282567E+00   0.7553392329E-01   0.7842683965E-04  -0.1387405213E-05   0.7842683965E-04  -0.1387405213E-05   0.3295761944E-01   0.1496322044E-02   0.0000000000E+00  -0.7664652220E-02
   0.2162910475E+00   0.6607302749E-01   0.7920326477E-04  -0.1055602658E-05   0.7920326477E-04  -0.1055602658E-05   0.3058564513E-01   0.2041858385E-02   0.0000000000E+00  -0.7452582273E-02
   0.2239771203E+00   0.5615557488E-01   0.8133116897E-04  -0.6531602898E-06   0.8133116897E-04  -0.6531602898E-06   0.2878923747E-01   0.3493998297E-02   0.0000000000E+00  -0.6419176668E-02
   0.2351940048E+00   0.6500663421E-01   0.8214641685E-04  -0.7757972033E-06   0.8214641685E-04  -0.7757972033E-06   0.3116458125E-01   0.3738761575E-02   0.0000000000E+00  -0.6023871599E-02
   0.2275078772E+00   0.7492404921E-01   0.7998359848E-04  -0.1200795762E-05   0.7998359848E-04  -0.1200795762E-05   0.3305200892E-01   0.2405212742E-02   0.0000000000E+00  -0.6944209818E-02
   0.8036177647E-01   0.1527418803E+00   0.2785048748E-04  -0.2661286778E-04   0.2785048748E-04  -0.2661286778E-04   0.6722839123E-01  -0.2891027190E-02   0.0000000000E+00   0.5744933314E-02
   0.6988067658E-01   0.1666801153E+00   0.2252924137E-04  -0.3037486120E-04   0.2252924137E-04  -0.3037486120E-04   0.6547536599E-01   0.2396379245E-04   0.0000000000E+00   0.7608846063E-02
   0.7375200050E-01   0.1483779833E+00   0.2625565075E-04  -0.2761982602E-04   0.2625565075E-04  -0.2761982602E-04   0.6880140045E-01  -0.1644598039E-02   0.0000000000E+00   0.5459313511E-02
   0.7512104685E-01   0.1597108939E+00   0.2510187439E-04  -0.2854553420E-04   0.2510187439E-04  -0.2854553420E-04   0.6659802688E-01  -0.1228716307E-02   0.0000000000E+00   0.6765292373E-02
   0.6601972976E-01   0.1606289673E+00   0.2194242967E-04  -0.3059586176E-04   0.2194242967E-04  -0.3059586176E-04   0.6717970846E-01   0.7205383689E-03   0.0000000000E+00   0.7278964749E-02
   0.1415315436E+00   0.1830788505E+00   0.4310228015E-04  -0.1807724360E-04   0.4310228015E-04  -0.1807724360E-04   0.5958959579E-01  -0.4333319695E-02   0.0000000000E+00   0.2332242288E-02
   0.1506550095E+00   0.1834796810E+00   0.4581026810E-04  -0.1666749920E-04   0.4581026810E-04  -0.1666749920E-04   0.5902480096E-01  -0.4135616143E-02   0.0000000000E+00   0.1441893760E-02
   0.1492211860E+00   0.1995496191E+00   0.4326000314E-04  -0.1859497270E-04   0.4326000314E-04  -0.1859497270E-04   0.5969470710E-01  -0.2677581633E-02   0.0000000000E+00   0.2232811867E-02
   0.1406790431E+00   0.1912123787E+00   0.4175856599E-04  -0.1910663715E-04   0.4175856599E-04  -0.1910663715E-04   0.5976900836E-01  -0.3534839470E-02   0.0000000000E+00   0.2740492871E-02
   0.2726636507E+00   0.1744950171E+00   0.8055435002E-04  -0.5741461951E-05   0.8055435002E-04  -0.5741461951E-05   0.5133777122E-01   0.7803609319E-03   0.0000000000E+00  -0.2765121931E-02
   0.2921140518E+00   0.1736187281E+00   0.8553388682E-04  -0.5195963368E-05   0.8553388682E-04  -0.5195963368E-05   0.5070345390E-01   0.1263480380E-02   0.0000000000E+00  -0.2245747231E-02
   0.2823888590E+00   0.1740569204E+00   0.8305549195E-04  -0.5444823582E-05   0.8305549195E-04  -0.5444823582E-05   0.5102825043E-01   0.1053865317E-02   0.0000000000E+00  -0.2504256754E-02
   0.2923511876E+00   0.1835261601E+00   0.8511630931E-04  -0.5899958129E-05   0.8511630931E-04  -0.5899958129E-05   0.5228139401E-01   0.1003453053E-02   0.0000000000E+00  -0.2013730089E-02
   0.2730890724E+00   0.1843765683E+00   0.8002968395E-04  -0.6466863182E-05   0.8002968395E-04  -0.6466863182E-05   0.5291226399E-01   0.6080249887E-03   0.0000000000E+00  -0.2454507854E-02
   0.9432820349E-01   0.1609912790E+00   0.3130419645E-04  -0.2450601653E-04   0.3130419645E-04  -0.2450601653E-04   0.6440919669E-01  -0.4578873950E-02   0.0000000000E+00   0.5471997991E-02
   0.8723384147E-01   0.1754285546E+00   0.2713503613E-04  -0.2764169054E-04   0.2713503613E-04  -0.2764169054E-04   0.6296929759E-01  -0.2366725080E-02   0.0000000000E+00   0.7188550308E-02
   0.9078090521E-01   0.1682098616E+00   0.2916100429E-04  -0.2610121907E-04   0.2916100429E-04  -0.2610121907E-04   0.6393585620E-01  -0.3355605457E-02   0.0000000000E+00   0.6424518156E-02
   0.7855730880E-01   0.1710543613E+00   0.2485699754E-04  -0.2899887040E-04   0.2485699754E-04  -0.2899887040E-04   0.6410645193E-01  -0.1392212885E-02   0.0000000000E+00   0.7441196627E-02
   0.8734501107E-01   0.1568666200E+00   0.2958973459E-04  -0.2553550673E-04   0.2958973459E-04  -0.2553550673E-04   0.6572207678E-01  -0.3969897329E-02   0.0000000000E+00   0.5668711189E-02
   0.2742561053E+00   0.7397212213E-01   0.8760165611E-04  -0.6810830205E-06   0.8760165611E-04  -0.6810830205E-06   0.3398694274E-01   0.5444946496E-02   0.0000000000E+00  -0.3918419555E-02
   0.2749354694E+00   0.8334698112E-01   0.8716469404E-04  -0.9222381180E-06   0.8716469404E-04  -0.9222381180E-06   0.3550222312E-01   0.4913472484E-02   0.0000000000E+00  -0.4012044226E-02
   0.2836561873E+00   0.7420480492E-01   0.8911266648E-04  -0.6320894895E-06   0.8911266648E-04  -0.6320894895E-06   0.3422399780E-01   0.5797699104E-02   0.0000000000E+00  -0.3387788051E-02
   0.2262988440E+00   0.1122947181E+00   0.7547697737E-04  -0.3114441172E-05   0.7547697737E-04  -0.3114441172E-05   0.4158355411E-01  -0.4172916002E-04   0.0000000000E+00  -0.6551564849E-02
   0.2225986489E+00   0.9418022184E-01   0.7693043323E-04  -0.2177828370E-05   0.7693043323E-04  -0.2177828370E-05   0.3750405587E-01   0.6064656414E-03   0.0000000000E+00  -0.7319401136E-02
   0.2244487087E+00   0.1032375052E+00   0.7618883196E-04  -0.2628380432E-05   0.7618883196E-04  -0.2628380432E-05   0.3962099726E-01   0.2986878326E-03   0.0000000000E+00  -0.6934086222E-02
   0.2310696384E+00   0.9342908908E-01   0.7858817651E-04  -0.1929461507E-05   0.7858817651E-04  -0.1929461507E-05   0.3726588436E-01   0.1448638810E-02   0.0000000000E+00  -0.6775222958E-02
   0.2341560936E+00   0.1114831769E+00   0.7719127612E-04  -0.2813560907E-05   0.7719127612E-04  -0.2813560907E-05   0.4116809987E-01   0.6972078232E-03   0.0000000000E+00  -0.6185435113E-02
   0.2725624558E+00   0.5526139024E-01   0.8832492172E-04  -0.3287785553E-06   0.8832492172E-04  -0.3287785553E-06   0.3122511303E-01   0.6411051207E-02   0.0000000000E+00  -0.3415147264E-02
   0.2716534289E+00   0.4597687150E-01   0.8860996492E-04  -0.2114519467E-06   0.8860996492E-04  -0.2114519467E-06   0.3002422425E-01   0.6780246045E-02   0.0000000000E+00  -0.2993520600E-02
   0.2912727188E+00   0.4614118825E-01   0.9138338831E-04  -0.1715270847E-06   0.9138338831E-04  -0.1715270847E-06   0.3089965676E-01   0.7369073823E-02   0.0000000000E+00  -0.2162615035E-02
   0.2822422870E+00   0.5538333821E-01   0.8974400680E-04  -0.2986958172E-06   0.8974400680E-04  -0.2986958172E-06   0.3159845451E-01   0.6740448318E-02   0.0000000000E+00  -0.2931644291E-02
   0.2734093176E+00   0.6461679853E-01   0.8798178100E-04  -0.4846871309E-06   0.8798178100E-04  -0.4846871309E-06   0.3254071674E-01   0.5909131552E-02   0.0000000000E+00  -0.3673613698E-02
   0.1570155954E+00   0.5349003865E-01   0.7298771035E-04  -0.2121726451E-05   0.7298771035E-04  -0.2121726451E-05   0.2276854356E-01  -0.5510331559E-02   0.0000000000E+00  -0.1189442787E-01
   0.1468940817E+00   0.6075037442E-01   0.7004235957E-04  -0.3249442044E-05   0.7004235957E-04  -0.3249442044E-05   0.2552926156E-01  -0.8214841448E-02   0.0000000000E+00  -0.1317263211E-01
   0.1519549627E+00   0.5712029411E-01   0.7157735450E-04  -0.2640843486E-05   0.7157735450E-04  -0.2640843486E-05   0.2400220326E-01  -0.6855533283E-02   0.0000000000E+00  -0.1257678661E-01
   0.1411958332E+00   0.5332158872E-01   0.7112307536E-04  -0.3108790461E-05   0.7112307536E-04  -0.3108790461E-05   0.2112051821E-01  -0.8942904395E-02   0.0000000000E+00  -0.1267665286E-01
   0.1548509983E+00   0.4650137140E-01   0.7412265238E-04  -0.1814499490E-05   0.7412265238E-04  -0.1814499490E-05   0.1924052279E-01  -0.5417227689E-02   0.0000000000E+00  -0.1120098944E-01
   0.1619646135E+00   0.3919661311E-01   0.7607973596E-04  -0.1179594194E-05   0.7607973596E-04  -0.1179594194E-05   0.1725722780E-01  -0.3239237138E-02   0.0000000000E+00  -0.9639677060E-02
   0.7018982690E-01   0.1372772694E+00   0.2694540074E-04  -0.2721231147E-04   0.2694540074E-04  -0.2721231147E-04   0.7160350180E-01  -0.1069652579E-02   0.0000000000E+00   0.3593726443E-02
   0.1239509374E+00   0.1490706384E+00   0.4284168023E-04  -0.1700832133E-04   0.4284168023E-04  -0.1700832133E-04   0.6070781304E-01  -0.8151683959E-02   0.0000000000E+00   0.4994741548E-03
   0.1446986106E+00   0.1473323494E+00   0.4951178746E-04  -0.1333930233E-04   0.4951178746E-04  -0.1333930233E-04   0.5729122595E-01  -0.7799884564E-02   0.0000000000E+00  -0.1895783827E-02
   0.1432569739E+00   0.1661014105E+00   0.4604297085E-04  -0.1584772722E-04   0.4604297085E-04  -0.1584772722E-04   0.5891675467E-01  -0.6054482208E-02   0.0000000000E+00   0.7163407470E-03
   0.1255656479E+00   0.1662752617E+00   0.4056093412E-04  -0.1889512609E-04   0.4056093412E-04  -0.1889512609E-04   0.6080458463E-01  -0.6154998968E-02   0.0000000000E+00   0.2655143475E-02
   0.1343248625E+00   0.1482016603E+00   0.4622273739E-04  -0.1508685446E-04   0.4622273739E-04  -0.1508685446E-04   0.5893777728E-01  -0.8131100764E-02   0.0000000000E+00  -0.7577577451E-03
   0.1439776883E+00   0.1567168463E+00   0.4772162751E-04  -0.1460686820E-04   0.4772162751E-04  -0.1460686820E-04   0.5821556268E-01  -0.6888851736E-02   0.0000000000E+00  -0.5521261810E-03
   0.1344113453E+00   0.1661884411E+00   0.4332263023E-04  -0.1731895037E-04   0.4332263023E-04  -0.1731895037E-04   0.5985075823E-01  -0.6220805238E-02   0.0000000000E+00   0.1636426503E-02
   0.1247581709E+00   0.1576729069E+00   0.4164244240E-04  -0.1797306053E-04   0.4164244240E-04  -0.1797306053E-04   0.6091296967E-01  -0.7094429473E-02   0.0000000000E+00   0.1630377093E-02
   0.6672553395E-01   0.1808211589E+00   0.2011497697E-04  -0.3233153167E-04   0.2011497697E-04  -0.3233153167E-04   0.6233792926E-01   0.7617168040E-03   0.0000000000E+00   0.7972894273E-02
   0.5933564273E-01   0.1820595033E+00   0.1772736655E-04  -0.3382234795E-04   0.1772736655E-04  -0.3382234795E-04   0.6202138589E-01   0.1999243111E-02   0.0000000000E+00   0.7769249638E-02
   0.6016651719E-01   0.1676015860E+00   0.1926249737E-04  -0.3243198363E-04   0.1926249737E-04  -0.3243198363E-04   0.6573414631E-01   0.2158782715E-02   0.0000000000E+00   0.7621760745E-02
   0.6830301840E-01   0.1737505936E+00   0.2127864994E-04  -0.3137472450E-04   0.2127864994E-04  -0.3137472450E-04   0.6401056160E-01   0.5004952904E-03   0.0000000000E+00   0.7865418812E-02
   0.1096148397E+00   0.1660762521E+00   0.3553435768E-04  -0.2193744360E-04   0.3553435768E-04  -0.2193744360E-04   0.6249122040E-01  -0.5551056241E-02   0.0000000000E+00   0.4436835882E-02
   0.1054960721E+00   0.1805456535E+00   0.3228756177E-04  -0.2444774426E-04   0.3228756177E-04  -0.2444774426E-04   0.6157413839E-01  -0.3690371366E-02   0.0000000000E+00   0.5909577114E-02
   0.1075553803E+00   0.1733109162E+00   0.3387315996E-04  -0.2321091159E-04   0.3387315996E-04  -0.2321091159E-04   0.6215354002E-01  -0.4582505697E-02   0.0000000000E+00   0.5193990885E-02
   0.9636499373E-01   0.1779871479E+00   0.2972976548E-04  -0.2602256195E-04   0.2972976548E-04  -0.2602256195E-04   0.6222900970E-01  -0.3323145025E-02   0.0000000000E+00   0.6551335043E-02
   0.1019715552E+00   0.1635338217E+00   0.3343611204E-04  -0.2319364914E-04   0.3343611204E-04  -0.2319364914E-04   0.6338118174E-01  -0.5197043377E-02   0.0000000000E+00   0.4953271945E-02
   0.2148313586E+00   0.1816647986E+00   0.6457728680E-04  -0.9236687281E-05   0.6457728680E-04  -0.9236687281E-05   0.5490128981E-01  -0.1431324917E-02   0.0000000000E+00  -0.2570360427E-02
   0.2340465105E+00   0.1798048432E+00   0.7000876475E-04  -0.7802402569E-05   0.7000876475E-04  -0.7802402569E-05   0.5365562104E-01  -0.6108775278E-03   0.0000000000E+00  -0.2945823577E-02
   0.2152582610E+00   0.1900178497E+00   0.6380201795E-04  -0.9953673710E-05   0.6380201795E-04  -0.9953673710E-05   0.5608046942E-01  -0.1184983607E-02   0.0000000000E+00  -0.2160211256E-02
   0.2244389760E+00   0.1807349115E+00   0.6731398038E-04  -0.8474267494E-05   0.6731398038E-04  -0.8474267494E-05   0.5427984379E-01  -0.1002831403E-02   0.0000000000E+00  -0.2771677410E-02
   0.2345247465E+00   0.1884204908E+00   0.6933023302E-04  -0.8500592716E-05   0.6933023302E-04  -0.8500592716E-05   0.5496228979E-01  -0.5172600715E-03   0.0000000000E+00  -0.2563276723E-02
   0.3018958298E+00   0.1735235945E+00   0.8799287869E-04  -0.5011758687E-05   0.8799287869E-04  -0.5011758687E-05   0.5053110315E-01   0.1454695788E-02   0.0000000000E+00  -0.1903463941E-02
   0.2753939056E+00   0.1304997126E+00   0.8416278810E-04  -0.2865207804E-05   0.8416278810E-04  -0.2865207804E-05   0.4377781017E-01   0.2385449009E-02   0.0000000000E+00  -0.3791036697E-02
   0.2842671081E+00   0.1316218706E+00   0.8599955799E-04  -0.2770207181E-05   0.8599955799E-04  -0.2770207181E-05   0.4383836036E-01   0.2707207277E-02   0.0000000000E+00  -0.3352388223E-02
   0.2757344916E+00   0.1209352607E+00   0.8488081833E-04  -0.2369673734E-05   0.8488081833E-04  -0.2369673734E-05   0.4206532367E-01   0.2878776638E-02   0.0000000000E+00  -0.3911019123E-02
   0.2704836078E+00   0.1522777689E+00   0.8153637541E-04  -0.4268544682E-05   0.8153637541E-04  -0.4268544682E-05   0.4772180499E-01   0.1346714013E-02   0.0000000000E+00  -0.3458409775E-02
   0.2811609639E+00   0.1527821399E+00   0.8401945982E-04  -0.4046544882E-05   0.8401945982E-04  -0.4046544882E-05   0.4753907810E-01   0.1694375653E-02   0.0000000000E+00  -0.3063508159E-02
   0.2729387979E+00   0.1413888023E+00   0.8287045149E-04  -0.3532335395E-05   0.8287045149E-04  -0.3532335395E-05   0.4574495868E-01   0.1844907147E-02   0.0000000000E+00  -0.3636253327E-02
   0.2628854120E+00   0.5529402324E-01   0.8691349180E-04  -0.3681781210E-06   0.8691349180E-04  -0.3681781210E-06   0.3078955314E-01   0.5998271455E-02   0.0000000000E+00  -0.3921315518E-02
   0.2534442433E+00   0.1774736492E+00   0.7536466225E-04  -0.6653411476E-05   0.7536466225E-04  -0.6653411476E-05   0.5245714829E-01   0.1386935643E-03   0.0000000000E+00  -0.2995061830E-02
   0.2539067703E+00   0.1865663371E+00   0.7476614616E-04  -0.7353941983E-05   0.7476614616E-04  -0.7353941983E-05   0.5389332234E-01   0.8956141302E-04   0.0000000000E+00  -0.2642226929E-02
   0.2437454273E+00   0.1786393235E+00   0.7270813218E-04  -0.7189225212E-05   0.7270813218E-04  -0.7189225212E-05   0.5305897544E-01  -0.2229347048E-03   0.0000000000E+00  -0.2982011307E-02
   0.2919761488E+00   0.1634526175E+00   0.8600691357E-04  -0.4511253920E-05   0.8600691357E-04  -0.4511253920E-05   0.4907075839E-01   0.1636905067E-02   0.0000000000E+00  -0.2442837894E-02
   0.1871029951E+00   0.1996870189E+00   0.5457907394E-04  -0.1350803689E-04   0.5457907394E-04  -0.1350803689E-04   0.5857194197E-01  -0.1756232205E-02   0.0000000000E+00  -0.5258576109E-03
   0.1842227185E+00   0.5941302518E-01   0.7546973054E-04  -0.1446308551E-05   0.7546973054E-04  -0.1446308551E-05   0.2709652947E-01  -0.1305652024E-02   0.0000000000E+00  -0.9969444336E-02
   0.1725640113E+00   0.4976931700E-01   0.7550966275E-04  -0.1327501118E-05   0.7550966275E-04  -0.1327501118E-05   0.2270417473E-01  -0.2280176280E-02   0.0000000000E+00  -0.1009735724E-01
   0.1221950905E+00   0.5811631668E-01   0.6741826523E-04  -0.5642008709E-05   0.6741826523E-04  -0.5642008709E-05   0.2177686217E-01  -0.1351855200E-01   0.0000000000E+00  -0.1323105896E-01
   0.1101617421E+00   0.7308477159E-01   0.6025206470E-04  -0.9395206783E-05   0.6025206470E-04  -0.9395206783E-05   0.3398833276E-01  -0.1298974964E-01   0.0000000000E+00  -0.1365643682E-01
   0.1161788149E+00   0.6560078094E-01   0.6403246133E-04  -0.7399278181E-05   0.6403246133E-04  -0.7399278181E-05   0.2725890028E-01  -0.1346000281E-01   0.0000000000E+00  -0.1351686791E-01
   0.1031980456E+00   0.6830195185E-01   0.6093930341E-04  -0.1046512348E-04   0.6093930341E-04  -0.1046512348E-04   0.2833440999E-01  -0.1151348336E-01   0.0000000000E+00  -0.1245525708E-01
   0.1151906389E+00   0.5210065354E-01   0.6854094216E-04  -0.6208779667E-05   0.6854094216E-04  -0.6208779667E-05   0.1649981357E-01  -0.1479631724E-01   0.0000000000E+00  -0.1088198020E-01
   0.2639419828E+00   0.1949585886E+00   0.7687990350E-04  -0.7618675417E-05   0.7687990350E-04  -0.7618675417E-05   0.5485734903E-01   0.2422873203E-03   0.0000000000E+00  -0.2245453130E-02
   0.1475913513E+00   0.8122513406E-01   0.6499066437E-04  -0.5040521156E-05   0.6499066437E-04  -0.5040521156E-05   0.3666531004E-01  -0.9242198203E-02   0.0000000000E+00  -0.1268093109E-01
   0.1353643245E+00   0.7049756792E-01   0.6564723802E-04  -0.5187839765E-05   0.6564723802E-04  -0.5187839765E-05   0.3119525905E-01  -0.1098187688E-01   0.0000000000E+00  -0.1380980647E-01
   0.1533003340E+00   0.6671971825E-01   0.6956798472E-04  -0.3274522727E-05   0.6956798472E-04  -0.3274522727E-05   0.2899987671E-01  -0.7218425384E-02   0.0000000000E+00  -0.1282140074E-01
   0.1536492825E+00   0.7695718970E-01   0.6719523955E-04  -0.4123301330E-05   0.6719523955E-04  -0.4123301330E-05   0.3406581512E-01  -0.8023322138E-02   0.0000000000E+00  -0.1257039050E-01
   0.1414776720E+00   0.7586140922E-01   0.6523601133E-04  -0.5085039500E-05   0.6523601133E-04  -0.5085039500E-05   0.3420964581E-01  -0.9863855199E-02   0.0000000000E+00  -0.1328955295E-01
   0.1411293969E+00   0.6562413042E-01   0.6794547219E-04  -0.4139942097E-05   0.6794547219E-04  -0.4139942097E-05   0.2814463680E-01  -0.9697301066E-02   0.0000000000E+00  -0.1355711880E-01
   0.1010397900E+00   0.1969125427E+00   0.2896452355E-04  -0.2706767251E-04   0.2896452355E-04  -0.2706767251E-04   0.5991365062E-01  -0.2099375655E-02   0.0000000000E+00   0.6546540638E-02
   0.9996567729E-01   0.2055317770E+00   0.2765314638E-04  -0.2812548644E-04   0.2765314638E-04  -0.2812548644E-04   0.5892806777E-01  -0.1500997123E-02   0.0000000000E+00   0.6205634400E-02
   0.1109987864E+00   0.1977525892E+00   0.3188472183E-04  -0.2520089650E-04   0.3188472183E-04  -0.2520089650E-04   0.5993481079E-01  -0.2529852966E-02   0.0000000000E+00   0.5641486586E-02
   0.8263743957E-01   0.1844000914E+00   0.2470383629E-04  -0.2950680734E-04   0.2470383629E-04  -0.2950680734E-04   0.6163232526E-01  -0.1277425335E-02   0.0000000000E+00   0.7544360184E-02
   0.7238347365E-01   0.1870964966E+00   0.2128397679E-04  -0.3180418755E-04   0.2128397679E-04  -0.3180418755E-04   0.6104165821E-01  -0.4154400444E-04   0.0000000000E+00   0.7896760334E-02
   0.8954055029E-01   0.1951421778E+00   0.2568669675E-04  -0.2917761487E-04   0.2568669675E-04  -0.2917761487E-04   0.5986860663E-01  -0.1458027983E-02   0.0000000000E+00   0.7166373873E-02
   0.1288468040E+00   0.5200478031E-01   0.7004050260E-04  -0.4194845535E-05   0.7004050260E-04  -0.4194845535E-05   0.1825652692E-01  -0.1224909094E-01   0.0000000000E+00  -0.1285527379E-01
   0.2664936258E+00   0.9249661473E-01   0.8508940534E-04  -0.1298332902E-05   0.8508940534E-04  -0.1298332902E-05   0.3702107715E-01   0.3979977913E-02   0.0000000000E+00  -0.4615892221E-02
   0.2674204069E+00   0.1108261802E+00   0.8392144403E-04  -0.2029908288E-05   0.8392144403E-04  -0.2029908288E-05   0.4036157978E-01   0.2987691254E-02   0.0000000000E+00  -0.4488669720E-02
   0.2648209010E+00   0.7390420097E-01   0.8608252412E-04  -0.7452638721E-06   0.8608252412E-04  -0.7452638721E-06   0.3375636227E-01   0.5009964687E-02   0.0000000000E+00  -0.4462316414E-02
   0.2542970938E+00   0.6458148730E-01   0.8506391910E-04  -0.5979003333E-06   0.8506391910E-04  -0.5979003333E-06   0.3185952151E-01   0.4999709055E-02   0.0000000000E+00  -0.4771661664E-02
   0.1236063861E+00   0.1823243901E+00   0.3770104556E-04  -0.2113942906E-04   0.3770104556E-04  -0.2113942906E-04   0.6063374178E-01  -0.4350599102E-02   0.0000000000E+00   0.4167307965E-02
   0.1325689885E+00   0.1827017115E+00   0.4041374955E-04  -0.1956276586E-04   0.4041374955E-04  -0.1956276586E-04   0.6008846364E-01  -0.4438656134E-02   0.0000000000E+00   0.3202963913E-02
   0.1222820526E+00   0.1904584037E+00   0.3623679859E-04  -0.2228366963E-04   0.3623679859E-04  -0.2228366963E-04   0.6035598371E-01  -0.3494610336E-02   0.0000000000E+00   0.4526713053E-02
   0.1612133628E+00   0.1679269402E+00   0.5113042116E-04  -0.1342440688E-04   0.5113042116E-04  -0.1342440688E-04   0.5714401112E-01  -0.5144872019E-02   0.0000000000E+00  -0.7690425017E-03
   0.1782573637E+00   0.1698260540E+00   0.5579133362E-04  -0.1152197895E-04   0.5579133362E-04  -0.1152197895E-04   0.5581946735E-01  -0.3975074907E-02   0.0000000000E+00  -0.1819519090E-02
   0.1604958573E+00   0.1759036053E+00   0.4978967485E-04  -0.1440086520E-04   0.4978967485E-04  -0.1440086520E-04   0.5789510433E-01  -0.4449194727E-02   0.0000000000E+00  -0.3336898964E-04
   0.1697353960E+00   0.1688765863E+00   0.5347749200E-04  -0.1242835681E-04   0.5347749200E-04  -0.1242835681E-04   0.5647376362E-01  -0.4565097847E-02   0.0000000000E+00  -0.1321191162E-02
   0.1780884278E+00   0.1771936284E+00   0.5475490232E-04  -0.1230031335E-04   0.5475490232E-04  -0.1230031335E-04   0.5665646215E-01  -0.3495277558E-02   0.0000000000E+00  -0.1244184891E-02
   0.8812380538E-01   0.1397849076E+00   0.3275998956E-04  -0.2325067829E-04   0.3275998956E-04  -0.2325067829E-04   0.6714356269E-01  -0.5748534216E-02   0.0000000000E+00   0.2730812031E-02
   0.8068084431E-01   0.1351628890E+00   0.3110845394E-04  -0.2442351117E-04   0.3110845394E-04  -0.2442351117E-04   0.6933999960E-01  -0.4368980862E-02   0.0000000000E+00   0.2367412936E-02
   0.8424263858E-01   0.1462633300E+00   0.3022903999E-04  -0.2495998086E-04   0.3022903999E-04  -0.2495998086E-04   0.6746987278E-01  -0.4128522121E-02   0.0000000000E+00   0.4331974790E-02
   0.9949247883E-01   0.8893832179E-01   0.5164541444E-04  -0.1369235704E-04   0.5164541444E-04  -0.1369235704E-04   0.4903785879E-01  -0.1063744184E-01   0.0000000000E+00  -0.1216565961E-01
   0.9174445654E-01   0.8428499519E-01   0.5169401837E-04  -0.1517100621E-04   0.5169401837E-04  -0.1517100621E-04   0.4485253460E-01  -0.7307331845E-02   0.0000000000E+00  -0.1334388874E-01
   0.1048273434E+00   0.8101169479E-01   0.5606519381E-04  -0.1146785623E-04   0.5606519381E-04  -0.1146785623E-04   0.4097290720E-01  -0.1182445517E-01   0.0000000000E+00  -0.1300809725E-01
   0.2630539898E+00   0.1759843885E+00   0.7798087923E-04  -0.6166233679E-05   0.7798087923E-04  -0.6166233679E-05   0.5190580433E-01   0.4738056520E-03   0.0000000000E+00  -0.2885104395E-02
   0.9645291986E-01   0.1276133404E+00   0.3827273190E-04  -0.1968979056E-04   0.3827273190E-04  -0.1968979056E-04   0.6515087897E-01  -0.8437991852E-02   0.0000000000E+00  -0.9805025157E-03
   0.8865066673E-01   0.1224227677E+00   0.3693651517E-04  -0.2081812711E-04   0.3693651517E-04  -0.2081812711E-04   0.6664284815E-01  -0.7373522364E-02   0.0000000000E+00  -0.1888894726E-02
   0.9228823917E-01   0.1336990992E+00   0.3545648509E-04  -0.2148237944E-04   0.3545648509E-04  -0.2148237944E-04   0.6660770305E-01  -0.6901252461E-02   0.0000000000E+00   0.1027559156E-02
   0.2506878539E+00   0.1600851193E+00   0.7612345158E-04  -0.5450347421E-05   0.7612345158E-04  -0.5450347421E-05   0.4970765459E-01   0.2823242819E-03   0.0000000000E+00  -0.3709718415E-02
   0.2605858191E+00   0.1561815310E+00   0.7887405182E-04  -0.4819493770E-05   0.7887405182E-04  -0.4819493770E-05   0.4868877653E-01   0.8051594342E-03   0.0000000000E+00  -0.3610641675E-02
   0.2715735873E+00   0.1633864362E+00   0.8102465098E-04  -0.4983415467E-05   0.8102465098E-04  -0.4983415467E-05   0.4955130678E-01   0.1061432842E-02   0.0000000000E+00  -0.3104419602E-02
   0.2520660108E+00   0.1687794026E+00   0.7572488917E-04  -0.6042707828E-05   0.7572488917E-04  -0.6042707828E-05   0.5111943571E-01   0.2116396336E-03   0.0000000000E+00  -0.3338254732E-02
   0.2595152197E+00   0.1275290776E+00   0.8096982513E-04  -0.3043200158E-05   0.8096982513E-04  -0.3043200158E-05   0.4356328492E-01   0.1744524848E-02   0.0000000000E+00  -0.4562504634E-02
   0.2674545501E+00   0.1290144130E+00   0.8256004168E-04  -0.2945022865E-05   0.8256004168E-04  -0.2945022865E-05   0.4368776118E-01   0.2106637005E-02   0.0000000000E+00  -0.4167988166E-02
   0.2591405156E+00   0.1189053870E+00   0.8161079953E-04  -0.2581975791E-05   0.8161079953E-04  -0.2581975791E-05   0.4197380684E-01   0.2134441834E-02   0.0000000000E+00  -0.4763330424E-02
   0.1962953257E+00   0.1840221530E+00   0.5910784237E-04  -0.1104449304E-04   0.5910784237E-04  -0.1104449304E-04   0.5627355626E-01  -0.2213848992E-02   0.0000000000E+00  -0.1781850836E-02
   0.1871074717E+00   0.1842917891E+00   0.5644486516E-04  -0.1200595792E-04   0.5644486516E-04  -0.1200595792E-04   0.5684502876E-01  -0.2626140659E-02   0.0000000000E+00  -0.1274608920E-02
   0.1964793368E+00   0.1917558783E+00   0.5824941254E-04  -0.1176334706E-04   0.5824941254E-04  -0.1176334706E-04   0.5722922435E-01  -0.1849212388E-02   0.0000000000E+00  -0.1393779158E-02
   0.2584436709E+00   0.1414968817E+00   0.7956595077E-04  -0.3911643524E-05   0.7956595077E-04  -0.3911643524E-05   0.4619036026E-01   0.1159950923E-02   0.0000000000E+00  -0.4171143770E-02
   0.2461005600E+00   0.1446335363E+00   0.7642049832E-04  -0.4527325570E-05   0.7642049832E-04  -0.4527325570E-05   0.4719453212E-01   0.3469312589E-03   0.0000000000E+00  -0.4449707628E-02
   0.2644635964E+00   0.1468873285E+00   0.8052219028E-04  -0.4084736960E-05   0.8052219028E-04  -0.4084736960E-05   0.4694226606E-01   0.1263159411E-02   0.0000000000E+00  -0.3813681135E-02
   0.2483941626E+00   0.1523593399E+00   0.7624979339E-04  -0.4982553972E-05   0.7624979339E-04  -0.4982553972E-05   0.4849521528E-01   0.3220277940E-03   0.0000000000E+00  -0.4064006052E-02
   0.2522721583E+00   0.1430652369E+00   0.7800713997E-04  -0.4205573297E-05   0.7800713997E-04  -0.4205573297E-05   0.4668483921E-01   0.7751590456E-03   0.0000000000E+00  -0.4307996095E-02
   0.2055633856E+00   0.1828435753E+00   0.6186428068E-04  -0.1009083794E-04   0.6186428068E-04  -0.1009083794E-04   0.5558755425E-01  -0.1817876216E-02   0.0000000000E+00  -0.2195009497E-02
   0.1145512512E+00   0.1814350986E+00   0.3500510454E-04  -0.2275872444E-04   0.3500510454E-04  -0.2275872444E-04   0.6107744631E-01  -0.4186762829E-02   0.0000000000E+00   0.4994348431E-02
   0.1032678788E+00   0.1887290464E+00   0.3059991802E-04  -0.2577981593E-04   0.3059991802E-04  -0.2577981593E-04   0.6088554502E-01  -0.2869246301E-02   0.0000000000E+00   0.6273587917E-02
   0.1917977726E+00   0.1589714662E+00   0.6103981450E-04  -0.9048897305E-05   0.6103981450E-04  -0.9048897305E-05   0.5321158163E-01  -0.3534675928E-02   0.0000000000E+00  -0.3432065609E-02
   0.1946264849E+00   0.1697704348E+00   0.6039645897E-04  -0.9834581053E-05   0.6039645897E-04  -0.9834581053E-05   0.5453457598E-01  -0.2886738975E-02   0.0000000000E+00  -0.2643656350E-02
   0.1798885649E+00   0.1552764029E+00   0.5830246765E-04  -0.9834527098E-05   0.5830246765E-04  -0.9834527098E-05   0.5380772897E-01  -0.4693644287E-02   0.0000000000E+00  -0.3280824049E-02
   0.1932121007E+00   0.1643709436E+00   0.6070437282E-04  -0.9445188003E-05   0.6070437282E-04  -0.9445188003E-05   0.5389113820E-01  -0.3233671207E-02   0.0000000000E+00  -0.3041652648E-02
   0.1864419503E+00   0.1697983168E+00   0.5811066095E-04  -0.1063809303E-04   0.5811066095E-04  -0.1063809303E-04   0.5516407464E-01  -0.3454790139E-02   0.0000000000E+00  -0.2257155267E-02
   0.1790729261E+00   0.1625512374E+00   0.5703155945E-04  -0.1067729649E-04   0.5703155945E-04  -0.1067729649E-04   0.5486346617E-01  -0.4317112267E-02   0.0000000000E+00  -0.2530681110E-02
   0.1858431746E+00   0.1571239664E+00   0.5967431936E-04  -0.9425806496E-05   0.5967431936E-04  -0.9425806496E-05   0.5348091622E-01  -0.4072145406E-02   0.0000000000E+00  -0.3353791699E-02
   0.2034828511E+00   0.1667228081E+00   0.6320307398E-04  -0.8774936994E-05   0.6320307398E-04  -0.8774936994E-05   0.5342651302E-01  -0.2476601870E-02   0.0000000000E+00  -0.3172371425E-02
   0.2135851776E+00   0.1726698795E+00   0.6523478228E-04  -0.8527252898E-05   0.6523478228E-04  -0.8527252898E-05   0.5366342549E-01  -0.1669508802E-02   0.0000000000E+00  -0.3049468092E-02
   0.1954608809E+00   0.1768962817E+00   0.5973646465E-04  -0.1044215132E-04   0.5973646465E-04  -0.1044215132E-04   0.5541132125E-01  -0.2562304350E-02   0.0000000000E+00  -0.2202421394E-02
   0.2386004267E+00   0.1456793476E+00   0.7453983150E-04  -0.4898723973E-05   0.7453983150E-04  -0.4898723973E-05   0.4774378855E-01  -0.1476193858E-03   0.0000000000E+00  -0.4556683241E-02
   0.2414897386E+00   0.1615886787E+00   0.7368627507E-04  -0.5955638462E-05   0.7368627507E-04  -0.5955638462E-05   0.5037857304E-01  -0.2115930036E-03   0.0000000000E+00  -0.3748217596E-02
   0.1010509849E+00   0.1485244936E+00   0.3551546271E-04  -0.2150219669E-04   0.3551546271E-04  -0.2150219669E-04   0.6452744162E-01  -0.6821807343E-02   0.0000000000E+00   0.3011804021E-02
   0.9768949277E-01   0.1547578610E+00   0.3335913597E-04  -0.2302052174E-04   0.3335913597E-04  -0.2302052174E-04   0.6467073605E-01  -0.5595272020E-02   0.0000000000E+00   0.4313155825E-02
   0.9458739445E-01   0.1441547699E+00   0.3413552383E-04  -0.2234556855E-04   0.3413552383E-04  -0.2234556855E-04   0.6571910564E-01  -0.6411967929E-02   0.0000000000E+00   0.2963922741E-02
   0.1522352121E+00   0.1670142811E+00   0.4860856681E-04  -0.1458297283E-04   0.4860856681E-04  -0.1458297283E-04   0.5801375276E-01  -0.5631182354E-02   0.0000000000E+00  -0.5952479756E-04
   0.1423941893E+00   0.1745901019E+00   0.4454162601E-04  -0.1697702855E-04   0.4454162601E-04  -0.1697702855E-04   0.5933721747E-01  -0.5160821973E-02   0.0000000000E+00   0.1553629805E-02
   0.1654499726E+00   0.5707409047E-01   0.7334877837E-04  -0.1954863542E-05   0.7334877837E-04  -0.1954863542E-05   0.2494431692E-01  -0.4162858961E-02   0.0000000000E+00  -0.1147822366E-01
   0.1287794724E+00   0.6430707234E-01   0.6641517635E-04  -0.5348980157E-05   0.6641517635E-04  -0.5348980157E-05   0.2724622771E-01  -0.1155969460E-01   0.0000000000E+00  -0.1370453271E-01
   0.2005344812E+00   0.7797664566E-01   0.7516309526E-04  -0.1928868369E-05   0.7516309526E-04  -0.1928868369E-05   0.3335438056E-01  -0.7103942266E-03   0.0000000000E+00  -0.9075912150E-02
   0.1975476164E+00   0.6807229382E-01   0.7611619442E-04  -0.1510191684E-05   0.7611619442E-04  -0.1510191684E-05   0.3048132054E-01  -0.2088611456E-03   0.0000000000E+00  -0.9063666173E-02
   0.1923987125E+00   0.8015527343E-01   0.7344076814E-04  -0.2314586376E-05   0.7344076814E-04  -0.2314586376E-05   0.3419037260E-01  -0.1966913358E-02   0.0000000000E+00  -0.9656746060E-02
   0.2094314129E+00   0.7675533486E-01   0.7681694528E-04  -0.1632972019E-05   0.7681694528E-04  -0.1632972019E-05   0.3317646789E-01   0.4455924336E-03   0.0000000000E+00  -0.8334550010E-02
   0.2204634425E+00   0.8485711704E-01   0.7767375248E-04  -0.1760382150E-05   0.7767375248E-04  -0.1760382150E-05   0.3529477424E-01   0.1060869731E-02   0.0000000000E+00  -0.7498038361E-02
   0.2114933414E+00   0.1146630463E+00   0.7203118770E-04  -0.3860865946E-05   0.7203118770E-04  -0.3860865946E-05   0.4285826795E-01  -0.1614593803E-02   0.0000000000E+00  -0.7063876782E-02
   0.2067247155E+00   0.9688971349E-01   0.7354323274E-04  -0.2841606170E-05   0.7354323274E-04  -0.2841606170E-05   0.3861898618E-01  -0.1282215079E-02   0.0000000000E+00  -0.8220294655E-02
   0.2188961351E+00   0.1134789290E+00   0.7377552599E-04  -0.3464515826E-05   0.7377552599E-04  -0.3464515826E-05   0.4222441193E-01  -0.8007328227E-03   0.0000000000E+00  -0.6806362834E-02
   0.2091089729E+00   0.1057764067E+00   0.7275944782E-04  -0.3338131168E-05   0.7275944782E-04  -0.3338131168E-05   0.4086661552E-01  -0.1418485694E-02   0.0000000000E+00  -0.7636486801E-02
   0.2146617387E+00   0.9553501640E-01   0.7526137244E-04  -0.2485347512E-05   0.7526137244E-04  -0.2485347512E-05   0.3806866361E-01  -0.3076219117E-03   0.0000000000E+00  -0.7761023642E-02
   0.9000857322E-01   0.1039625806E+00   0.4317311027E-04  -0.1798817557E-04   0.4317311027E-04  -0.1798817557E-04   0.6151262170E-01  -0.8141246412E-02   0.0000000000E+00  -0.8108775722E-02
   0.9475052030E-01   0.9645051509E-01   0.4740640219E-04  -0.1580640577E-04   0.4740640219E-04  -0.1580640577E-04   0.5516814122E-01  -0.9322789207E-02   0.0000000000E+00  -0.1013961610E-01
   0.8101060238E-01   0.9903023305E-01   0.4226338866E-04  -0.1980037601E-04   0.4226338866E-04  -0.1980037601E-04   0.6089886907E-01  -0.4603474046E-02   0.0000000000E+00  -0.1096611655E-01
   0.1245949948E+00   0.8337110549E-01   0.5959740643E-04  -0.8041554406E-05   0.5959740643E-04  -0.8041554406E-05   0.4055169393E-01  -0.1247652662E-01   0.0000000000E+00  -0.1306247431E-01
   0.1299798806E+00   0.7693451942E-01   0.6273481845E-04  -0.6525188877E-05   0.6273481845E-04  -0.6525188877E-05   0.3555769087E-01  -0.1189716333E-01   0.0000000000E+00  -0.1357723610E-01
   0.1173780826E+00   0.7822816186E-01   0.5978179183E-04  -0.8604871238E-05   0.5978179183E-04  -0.8604871238E-05   0.3746265257E-01  -0.1245320897E-01   0.0000000000E+00  -0.1344025945E-01
   0.8542847572E-01   0.1105972383E+00   0.3937601107E-04  -0.2004185470E-04   0.3937601107E-04  -0.2004185470E-04   0.6554972918E-01  -0.6367995145E-02   0.0000000000E+00  -0.5448403051E-02
   0.1088454136E+00   0.1151612253E+00   0.4555677745E-04  -0.1521033871E-04   0.4555677745E-04  -0.1521033871E-04   0.5954452442E-01  -0.1115275304E-01   0.0000000000E+00  -0.5510163625E-02
   0.9942677176E-01   0.1095621740E+00   0.4425423202E-04  -0.1646550344E-04   0.4425423202E-04  -0.1646550344E-04   0.5984552230E-01  -0.1030053955E-01   0.0000000000E+00  -0.6631327753E-02
   0.1026491289E+00   0.1213873386E+00   0.4189793101E-04  -0.1742369335E-04   0.4189793101E-04  -0.1742369335E-04   0.6242416348E-01  -0.9766524240E-02   0.0000000000E+00  -0.3171730988E-02
   0.2331689756E+00   0.1714484832E+00   0.7058730514E-04  -0.7160399166E-05   0.7058730514E-04  -0.7160399166E-05   0.5238610890E-01  -0.6603822127E-03   0.0000000000E+00  -0.3342692764E-02
   0.2439715491E+00   0.1279826829E+00   0.7754954267E-04  -0.3505529890E-05   0.7754954267E-04  -0.3505529890E-05   0.4415354424E-01   0.7412024749E-03   0.0000000000E+00  -0.5185478133E-02
   0.2517433970E+00   0.1277559187E+00   0.7926950287E-04  -0.3259146319E-05   0.7926950287E-04  -0.3259146319E-05   0.4386917030E-01   0.1264219264E-02   0.0000000000E+00  -0.4874653136E-02
   0.2429924039E+00   0.1193271553E+00   0.7820242868E-04  -0.3011329953E-05   0.7820242868E-04  -0.3011329953E-05   0.4248497281E-01   0.1060128959E-02   0.0000000000E+00  -0.5503873961E-02
   0.1990129340E+00   0.1517261072E+00   0.6394052453E-04  -0.7743409944E-05   0.6394052453E-04  -0.7743409944E-05   0.5146024652E-01  -0.3145532691E-02   0.0000000000E+00  -0.4226668231E-02
   0.2055030468E+00   0.1444225671E+00   0.6658588289E-04  -0.6605455481E-05   0.6658588289E-04  -0.6605455481E-05   0.4961652928E-01  -0.2653584743E-02   0.0000000000E+00  -0.4960917184E-02
   0.2056759667E+00   0.1577005402E+00   0.6491285820E-04  -0.7777406956E-05   0.6491285820E-04  -0.7777406956E-05   0.5187341333E-01  -0.2490786269E-02   0.0000000000E+00  -0.3900550287E-02
   0.2022580023E+00   0.1480743707E+00   0.6527267028E-04  -0.7161648027E-05   0.6527267028E-04  -0.7161648027E-05   0.5048066219E-01  -0.2952847268E-02   0.0000000000E+00  -0.4644890682E-02
   0.2109747967E+00   0.1455898367E+00   0.6780733213E-04  -0.6343673090E-05   0.6780733213E-04  -0.6343673090E-05   0.4941791975E-01  -0.2231633676E-02   0.0000000000E+00  -0.4862133035E-02
   0.1245859485E+00   0.1742997908E+00   0.3909676347E-04  -0.2003509424E-04   0.3909676347E-04  -0.2003509424E-04   0.6081125393E-01  -0.5221040236E-02   0.0000000000E+00   0.3434911969E-02
   0.1925328037E+00   0.1008131390E+00   0.7008586370E-04  -0.3738493866E-05   0.7008586370E-04  -0.3738493866E-05   0.4048178728E-01  -0.3265639127E-02   0.0000000000E+00  -0.8792080966E-02
   0.2036295538E+00   0.8743321808E-01   0.7432738874E-04  -0.2366011451E-05   0.7432738874E-04  -0.2366011451E-05   0.3615098973E-01  -0.9615058515E-03   0.0000000000E+00  -0.8655801782E-02
   0.1996288154E+00   0.9885148662E-01   0.7184617816E-04  -0.3259838374E-05   0.7184617816E-04  -0.3259838374E-05   0.3953678876E-01  -0.2270192127E-02   0.0000000000E+00  -0.8517347413E-02
   0.1883976637E+00   0.9157346582E-01   0.7080433214E-04  -0.3246492199E-05   0.7080433214E-04  -0.3246492199E-05   0.3794464369E-01  -0.3230793005E-02   0.0000000000E+00  -0.9533774987E-02
   0.1417985723E+00   0.1241920070E+00   0.5315316165E-04  -0.1081051820E-04   0.5315316165E-04  -0.1081051820E-04   0.5390657309E-01  -0.9744433728E-02   0.0000000000E+00  -0.5843671856E-02
   0.1459807902E+00   0.1118718281E+00   0.5704908729E-04  -0.8699930789E-05   0.5704908729E-04  -0.8699930789E-05   0.4975924170E-01  -0.9859739931E-02   0.0000000000E+00  -0.8323182830E-02
   0.1587190632E+00   0.1176530530E+00   0.5911307540E-04  -0.7933013330E-05   0.5911307540E-04  -0.7933013330E-05   0.4922095758E-01  -0.8199588483E-02   0.0000000000E+00  -0.7605090307E-02
   0.1542048443E+00   0.1313572922E+00   0.5518564057E-04  -0.1006842214E-04   0.5518564057E-04  -0.1006842214E-04   0.5324612272E-01  -0.8269497366E-02   0.0000000000E+00  -0.5215930456E-02
   0.1438896636E+00   0.1180319507E+00   0.5508878042E-04  -0.9737150213E-05   0.5508878042E-04  -0.9737150213E-05   0.5187943950E-01  -0.9793638836E-02   0.0000000000E+00  -0.7071485395E-02
   0.1523499041E+00   0.1147624788E+00   0.5806952968E-04  -0.8295624184E-05   0.5806952968E-04  -0.8295624184E-05   0.4943833774E-01  -0.9024245447E-02   0.0000000000E+00  -0.7927323343E-02
   0.1564619384E+00   0.1245052180E+00   0.5713820460E-04  -0.8980010712E-05   0.5713820460E-04  -0.8980010712E-05   0.5131546210E-01  -0.8212574928E-02   0.0000000000E+00  -0.6393914726E-02
   0.1480016818E+00   0.1277746858E+00   0.5415637741E-04  -0.1042309396E-04   0.5415637741E-04  -0.1042309396E-04   0.5352810256E-01  -0.8990730136E-02   0.0000000000E+00  -0.5465800849E-02
   0.1175902740E+00   0.1661758229E+00   0.3806299723E-04  -0.2037954519E-04   0.3806299723E-04  -0.2037954519E-04   0.6161708510E-01  -0.5969071719E-02   0.0000000000E+00   0.3515642047E-02
   0.1638738671E+00   0.1519570703E+00   0.5432255758E-04  -0.1128486377E-04   0.5432255758E-04  -0.1128486377E-04   0.5507652978E-01  -0.6183969847E-02   0.0000000000E+00  -0.2786675184E-02
   0.1542862839E+00   0.1496448218E+00   0.5193994693E-04  -0.1225610214E-04   0.5193994693E-04  -0.1225610214E-04   0.5614080635E-01  -0.7039662786E-02   0.0000000000E+00  -0.2374879280E-02
   0.1625435571E+00   0.1599419985E+00   0.5270152667E-04  -0.1235423939E-04   0.5270152667E-04  -0.1235423939E-04   0.5627931596E-01  -0.5613267591E-02   0.0000000000E+00  -0.1732680813E-02
   0.1114683836E+00   0.1549079130E+00   0.3784980941E-04  -0.2016800726E-04   0.3784980941E-04  -0.2016800726E-04   0.6274766792E-01  -0.6947342869E-02   0.0000000000E+00   0.2829630517E-02
   0.1105415518E+00   0.1604920630E+00   0.3666392379E-04  -0.2106251955E-04   0.3666392379E-04  -0.2106251955E-04   0.6264399218E-01  -0.6217464184E-02   0.0000000000E+00   0.3635916815E-02
   0.1177096704E+00   0.1519893192E+00   0.4035071975E-04  -0.1856287679E-04   0.4035071975E-04  -0.1856287679E-04   0.6177227695E-01  -0.7641629853E-02   0.0000000000E+00   0.1632718662E-02
   0.1373583294E+00   0.1347182039E+00   0.4967622465E-04  -0.1284005650E-04   0.4967622465E-04  -0.1284005650E-04   0.5683205268E-01  -0.9244933395E-02   0.0000000000E+00  -0.3407246657E-02
   0.1395784184E+00   0.1294551242E+00   0.5140221479E-04  -0.1181438987E-04   0.5140221479E-04  -0.1181438987E-04   0.5545723960E-01  -0.9503597501E-02   0.0000000000E+00  -0.4570523185E-02
   0.1494517117E+00   0.1393449022E+00   0.5233734284E-04  -0.1166690171E-04   0.5233734284E-04  -0.1166690171E-04   0.5538862130E-01  -0.8055312322E-02   0.0000000000E+00  -0.3566600376E-02
   0.1410283898E+00   0.1410252624E+00   0.4955391504E-04  -0.1309679094E-04   0.4955391504E-04  -0.1309679094E-04   0.5707473883E-01  -0.8534883536E-02   0.0000000000E+00  -0.2673101325E-02
   0.2589794633E+00   0.1345130052E+00   0.8026963718E-04  -0.3464911240E-05   0.8026963718E-04  -0.3464911240E-05   0.4491577870E-01   0.1441277554E-02   0.0000000000E+00  -0.4366257120E-02
   0.1806253428E+00   0.1056448542E+00   0.6669441300E-04  -0.4834404846E-05   0.6669441300E-04  -0.4834404846E-05   0.4287629322E-01  -0.5087892632E-02   0.0000000000E+00  -0.8870120185E-02
   0.1865791292E+00   0.1032290572E+00   0.6842158286E-04  -0.4255890487E-05   0.6842158286E-04  -0.4255890487E-05   0.4165035037E-01  -0.4203605503E-02   0.0000000000E+00  -0.8850752267E-02
   0.1750801365E+00   0.9779539875E-01   0.6695876273E-04  -0.4499274199E-05   0.6695876273E-04  -0.4499274199E-05   0.4095390268E-01  -0.5512655001E-02   0.0000000000E+00  -0.9835177806E-02
   0.1510927521E+00   0.1000231707E+00   0.6110207370E-04  -0.6717639358E-05   0.6110207370E-04  -0.6717639358E-05   0.4472057869E-01  -0.9283161093E-02   0.0000000000E+00  -0.1032528390E-01
   0.1382211260E+00   0.9238290682E-01   0.6001998966E-04  -0.7272288399E-05   0.6001998966E-04  -0.7272288399E-05   0.4345942759E-01  -0.1098561242E-01   0.0000000000E+00  -0.1166404417E-01
   0.1558895508E+00   0.9053547210E-01   0.6441537679E-04  -0.5247549371E-05   0.6441537679E-04  -0.5247549371E-05   0.4011563368E-01  -0.8256602681E-02   0.0000000000E+00  -0.1141824742E-01
   0.1446568458E+00   0.9620308667E-01   0.6051792404E-04  -0.6971064198E-05   0.6051792404E-04  -0.6971064198E-05   0.4404340240E-01  -0.1008189437E-01   0.0000000000E+00  -0.1095777908E-01
   0.1429063653E+00   0.8680414096E-01   0.6256864062E-04  -0.6096118759E-05   0.6256864062E-04  -0.6096118759E-05   0.3991661740E-01  -0.1020440842E-01   0.0000000000E+00  -0.1223615000E-01
   0.1517403615E+00   0.8588031386E-01   0.6465825253E-04  -0.5138619372E-05   0.6465825253E-04  -0.5138619372E-05   0.3846909996E-01  -0.8651740100E-02   0.0000000000E+00  -0.1203768927E-01
   0.1534911932E+00   0.9527936855E-01   0.6277558402E-04  -0.5959072888E-05   0.6277558402E-04  -0.5959072888E-05   0.4238880923E-01  -0.8770471240E-02   0.0000000000E+00  -0.1090040971E-01
   0.1273569351E+00   0.1185458071E+00   0.5027803012E-04  -0.1225646320E-04   0.5027803012E-04  -0.1225646320E-04   0.5548947667E-01  -0.1106432135E-01   0.0000000000E+00  -0.6072960456E-02
   0.1260325640E+00   0.1331081760E+00   0.4657499798E-04  -0.1448797996E-04   0.4657499798E-04  -0.1448797996E-04   0.5873306194E-01  -0.9846294488E-02   0.0000000000E+00  -0.2711015620E-02
   0.1145255685E+00   0.1296853642E+00   0.4371473963E-04  -0.1614187675E-04   0.4371473963E-04  -0.1614187675E-04   0.6079188483E-01  -0.1000165478E-01   0.0000000000E+00  -0.2286998446E-02
   0.1181012275E+00   0.1168536984E+00   0.4794624442E-04  -0.1364230440E-04   0.4794624442E-04  -0.1364230440E-04   0.5715814687E-01  -0.1127271061E-01   0.0000000000E+00  -0.5739801280E-02
   0.1266946326E+00   0.1258269833E+00   0.4836831386E-04  -0.1337433760E-04   0.4836831386E-04  -0.1337433760E-04   0.5734418910E-01  -0.1037576811E-01   0.0000000000E+00  -0.4405761398E-02
   0.1202790783E+00   0.1313968302E+00   0.4515264251E-04  -0.1528837526E-04   0.4515264251E-04  -0.1528837526E-04   0.5979717473E-01  -0.1009481225E-01   0.0000000000E+00  -0.2475390732E-02
   0.1116852906E+00   0.1224232886E+00   0.4453578007E-04  -0.1567719791E-04   0.4453578007E-04  -0.1567719791E-04   0.6022499874E-01  -0.1049310970E-01   0.0000000000E+00  -0.3797678382E-02
   0.2291240715E+00   0.1294823958E+00   0.7408227415E-04  -0.4146085119E-05   0.7408227415E-04  -0.4146085119E-05   0.4508337643E-01  -0.4420546927E-03   0.0000000000E+00  -0.5628111760E-02
   0.2301121222E+00   0.1381037634E+00   0.7333707680E-04  -0.4718818430E-05   0.7333707680E-04  -0.4718818430E-05   0.4675200346E-01  -0.5534427636E-03   0.0000000000E+00  -0.5130899107E-02
   0.2365478410E+00   0.1287325776E+00   0.7583097886E-04  -0.3806712838E-05   0.7583097886E-04  -0.3806712838E-05   0.4462367620E-01   0.1728417990E-03   0.0000000000E+00  -0.5407177464E-02
   0.2450360209E+00   0.1363081419E+00   0.7697195064E-04  -0.4004036167E-05   0.7697195064E-04  -0.4004036167E-05   0.4569373200E-01   0.5527817908E-03   0.0000000000E+00  -0.4808741562E-02
   0.2012646281E+00   0.1332255260E+00   0.6707404265E-04  -0.5910523390E-05   0.6707404265E-04  -0.5910523390E-05   0.4776234549E-01  -0.3115776175E-02   0.0000000000E+00  -0.5916319791E-02
   0.1976540964E+00   0.1180997797E+00   0.6845522027E-04  -0.4846129592E-05   0.6845522027E-04  -0.4846129592E-05   0.4466864630E-01  -0.3261410714E-02   0.0000000000E+00  -0.7254468949E-02
   0.2150475321E+00   0.1311487067E+00   0.7064353628E-04  -0.4927130404E-05   0.7064353628E-04  -0.4927130404E-05   0.4627162520E-01  -0.1732228628E-02   0.0000000000E+00  -0.5882664898E-02
   0.1994593084E+00   0.1256626645E+00   0.6773769042E-04  -0.5374254861E-05   0.6773769042E-04  -0.5374254861E-05   0.4631344734E-01  -0.3175952999E-02   0.0000000000E+00  -0.6573423427E-02
   0.2045737735E+00   0.1163814737E+00   0.7027023600E-04  -0.4325137404E-05   0.7027023600E-04  -0.4325137404E-05   0.4376011649E-01  -0.2436598567E-02   0.0000000000E+00  -0.7170896865E-02
   0.2132703882E+00   0.1229058932E+00   0.7131309948E-04  -0.4385404506E-05   0.7131309948E-04  -0.4385404506E-05   0.4464551367E-01  -0.1648222435E-02   0.0000000000E+00  -0.6460910922E-02
   0.2081561193E+00   0.1321871581E+00   0.6887815896E-04  -0.5393926167E-05   0.6887815896E-04  -0.5393926167E-05   0.4701093025E-01  -0.2400021118E-02   0.0000000000E+00  -0.5898623776E-02
   0.1086700003E+00   0.1384775142E+00   0.3993364496E-04  -0.1854691069E-04   0.3993364496E-04  -0.1854691069E-04   0.6313195720E-01  -0.8750692041E-02   0.0000000000E+00   0.3134205403E-03
   0.1062596874E+00   0.1517162290E+00   0.3668619324E-04  -0.2081849634E-04   0.3668619324E-04  -0.2081849634E-04   0.6357509649E-01  -0.6955404001E-02   0.0000000000E+00   0.2956760752E-02
   0.1048604324E+00   0.1435010018E+00   0.3769619431E-04  -0.2002561106E-04   0.3769619431E-04  -0.2002561106E-04   0.6387509338E-01  -0.7704475880E-02   0.0000000000E+00   0.1695575887E-02
   0.1163104499E+00   0.1437741478E+00   0.4137795535E-04  -0.1774157569E-04   0.4137795535E-04  -0.1774157569E-04   0.6174680476E-01  -0.8471559631E-02   0.0000000000E+00   0.4184454892E-03
   0.2157470120E+00   0.1389528929E+00   0.6981850047E-04  -0.5507556817E-05   0.6981850047E-04  -0.5507556817E-05   0.4777619749E-01  -0.1739283576E-02   0.0000000000E+00  -0.5327438684E-02
   0.2220858432E+00   0.1303156013E+00   0.7237959123E-04  -0.4515360571E-05   0.7237959123E-04  -0.4515360571E-05   0.4568052360E-01  -0.1076209548E-02   0.0000000000E+00  -0.5757980719E-02
   0.1718812421E+00   0.1536168068E+00   0.5632553000E-04  -0.1052462248E-04   0.5632553000E-04  -0.1052462248E-04   0.5443863224E-01  -0.5403532923E-02   0.0000000000E+00  -0.3050617598E-02
   0.1688575394E+00   0.1364759359E+00   0.5826818290E-04  -0.8977541916E-05   0.5826818290E-04  -0.8977541916E-05   0.5195855447E-01  -0.6572876842E-02   0.0000000000E+00  -0.5104650966E-02
   0.1864208764E+00   0.1396106118E+00   0.6240019163E-04  -0.7625099990E-05   0.6240019163E-04  -0.7625099990E-05   0.5047599067E-01  -0.4600770638E-02   0.0000000000E+00  -0.5191012536E-02
   0.1776392469E+00   0.1380433607E+00   0.6034997357E-04  -0.8261647046E-05   0.6034997357E-04  -0.8261647046E-05   0.5121616498E-01  -0.5559410346E-02   0.0000000000E+00  -0.5131961252E-02
   0.1831547224E+00   0.1474435573E+00   0.6035218365E-04  -0.8704857927E-05   0.6035218365E-04  -0.8704857927E-05   0.5218123235E-01  -0.4664291785E-02   0.0000000000E+00  -0.4260809777E-02
   0.1663656800E+00   0.1442165422E+00   0.5628002227E-04  -0.1011540543E-04   0.5628002227E-04  -0.1011540543E-04   0.5370023006E-01  -0.6322792997E-02   0.0000000000E+00  -0.3914912294E-02
   0.1627674546E+00   0.1046929664E+00   0.6280828207E-04  -0.6112802748E-05   0.6280828207E-04  -0.6112802748E-05   0.4471281181E-01  -0.7644061249E-02   0.0000000000E+00  -0.9505593893E-02
   0.1485367853E+00   0.1059475558E+00   0.5908264347E-04  -0.7680593618E-05   0.5908264347E-04  -0.7680593618E-05   0.4723957265E-01  -0.9578576216E-02   0.0000000000E+00  -0.9344257337E-02
   0.1569300879E+00   0.1023581045E+00   0.6194345865E-04  -0.6399273301E-05   0.6194345865E-04  -0.6399273301E-05   0.4464588166E-01  -0.8413215124E-02   0.0000000000E+00  -0.9890661189E-02
   0.1607432677E+00   0.1111730583E+00   0.6096133200E-04  -0.6998849084E-05   0.6096133200E-04  -0.6998849084E-05   0.4702924417E-01  -0.7921143836E-02   0.0000000000E+00  -0.8538547499E-02
   0.1845104663E+00   0.1214537838E+00   0.6483315812E-04  -0.6020581559E-05   0.6483315812E-04  -0.6020581559E-05   0.4675886455E-01  -0.4937574326E-02   0.0000000000E+00  -0.7160591800E-02
   0.1716672214E+00   0.1217990806E+00   0.6161018409E-04  -0.7115708173E-05   0.6161018409E-04  -0.7115708173E-05   0.4839009667E-01  -0.6549382324E-02   0.0000000000E+00  -0.7129237365E-02
   0.1854655966E+00   0.1305322063E+00   0.6357930815E-04  -0.6816859596E-05   0.6357930815E-04  -0.6816859596E-05   0.4872477316E-01  -0.4761158543E-02   0.0000000000E+00  -0.6173689117E-02
   0.1702623511E+00   0.1291375450E+00   0.5992454791E-04  -0.8032001438E-05   0.5992454791E-04  -0.8032001438E-05   0.5030612007E-01  -0.6512238419E-02   0.0000000000E+00  -0.6104178241E-02
   0.1780888718E+00   0.1216264807E+00   0.6323940845E-04  -0.6542152836E-05   0.6323940845E-04  -0.6542152836E-05   0.4756395597E-01  -0.5717542108E-02   0.0000000000E+00  -0.7147656672E-02
   0.1157146264E+00   0.9812175305E-01   0.5267271109E-04  -0.1145987454E-04   0.5267271109E-04  -0.1145987454E-04   0.5088441688E-01  -0.1236460046E-01   0.0000000000E+00  -0.1037629545E-01
   0.1201549096E+00   0.9074655959E-01   0.5618481254E-04  -0.9685555276E-05   0.5618481254E-04  -0.9685555276E-05   0.4557953412E-01  -0.1247090471E-01   0.0000000000E+00  -0.1179096590E-01
   0.1076033041E+00   0.9353029888E-01   0.5203506841E-04  -0.1244541086E-04   0.5203506841E-04  -0.1244541086E-04   0.4958823090E-01  -0.1187410843E-01   0.0000000000E+00  -0.1107646524E-01
   0.1910823370E+00   0.1197768431E+00   0.6667200088E-04  -0.5402452008E-05   0.6667200088E-04  -0.5402452008E-05   0.4570560004E-01  -0.4117311893E-02   0.0000000000E+00  -0.7231906159E-02
   0.1825678324E+00   0.1135493262E+00   0.6572770471E-04  -0.5421900090E-05   0.6572770471E-04  -0.5421900090E-05   0.4496073344E-01  -0.4975959920E-02   0.0000000000E+00  -0.8015497754E-02
   0.1950933662E+00   0.1094564800E+00   0.6923210024E-04  -0.4283980449E-05   0.6923210024E-04  -0.4283980449E-05   0.4271248199E-01  -0.3241098522E-02   0.0000000000E+00  -0.8011756485E-02
   0.2277114165E+00   0.1208885840E+00   0.7476275172E-04  -0.3617004929E-05   0.7476275172E-04  -0.3617004929E-05   0.4340457796E-01  -0.2251464980E-03   0.0000000000E+00  -0.6081879026E-02
   0.1025613880E+00   0.1330454977E+00   0.3906499273E-04  -0.1908663717E-04   0.3906499273E-04  -0.1908663717E-04   0.6389199595E-01  -0.8773511637E-02   0.0000000000E+00  -0.3176294685E-03
   0.1938428270E+00   0.1364181604E+00   0.6477448845E-04  -0.6722287893E-05   0.6477448845E-04  -0.6722287893E-05   0.4912273555E-01  -0.3835540960E-02   0.0000000000E+00  -0.5553766818E-02
   0.2033837917E+00   0.1388240436E+00   0.6681085058E-04  -0.6259679121E-05   0.6681085058E-04  -0.6259679121E-05   0.4870510088E-01  -0.2866456798E-02   0.0000000000E+00  -0.5402062364E-02
   0.1927168414E+00   0.1456683686E+00   0.6313870770E-04  -0.7683712152E-05   0.6313870770E-04  -0.7683712152E-05   0.5100262375E-01  -0.3850653809E-02   0.0000000000E+00  -0.4697783320E-02
   0.1122799143E+00   0.1066415529E+00   0.4906215190E-04  -0.1330304638E-04   0.4906215190E-04  -0.1330304638E-04   0.5540624781E-01  -0.1170767303E-01   0.0000000000E+00  -0.7952985824E-02
   0.1315292395E+00   0.1052953211E+00   0.5484277095E-04  -0.9805958733E-05   0.5484277095E-04  -0.9805958733E-05   0.5034879787E-01  -0.1150334900E-01   0.0000000000E+00  -0.9256288833E-02
   0.1314078986E+00   0.8787710756E-01   0.5972981100E-04  -0.7608070119E-05   0.5972981100E-04  -0.7608070119E-05   0.4197797416E-01  -0.1157716881E-01   0.0000000000E+00  -0.1233009598E-01
   0.1348752209E+00   0.9883920172E-01   0.5745044630E-04  -0.8497042127E-05   0.5745044630E-04  -0.8497042127E-05   0.4687886023E-01  -0.1126676833E-01   0.0000000000E+00  -0.1049659043E-01
   0.1236218466E+00   0.1017086797E+00   0.5371629625E-04  -0.1056165309E-04   0.5371629625E-04  -0.1056165309E-04   0.5035763530E-01  -0.1207015593E-01   0.0000000000E+00  -0.9703748519E-02
   0.1615311976E+00   0.1339166667E+00   0.5672979595E-04  -0.9496635139E-05   0.5672979595E-04  -0.9496635139E-05   0.5257834213E-01  -0.7365088862E-02   0.0000000000E+00  -0.5129683103E-02
   0.1719735757E+00   0.1103303715E+00   0.6383887312E-04  -0.5912738547E-05   0.6383887312E-04  -0.5912738547E-05   0.4531722515E-01  -0.6410860212E-02   0.0000000000E+00  -0.8590968526E-02
   0.1762994967E+00   0.1079876502E+00   0.6528887041E-04  -0.5352911014E-05   0.6528887041E-04  -0.5352911014E-05   0.4405361061E-01  -0.5796493278E-02   0.0000000000E+00  -0.8744584801E-02
   0.1673704857E+00   0.1075116779E+00   0.6330883002E-04  -0.6008544484E-05   0.6330883002E-04  -0.6008544484E-05   0.4493843506E-01  -0.7014089126E-02   0.0000000000E+00  -0.9000292579E-02
   0.1661514268E+00   0.9731955586E-01   0.6512939102E-04  -0.5089972102E-05   0.6512939102E-04  -0.5089972102E-05   0.4163935829E-01  -0.6884023981E-02   0.0000000000E+00  -0.1023057227E-01
   0.1627124362E+00   0.9024077588E-01   0.6591360596E-04  -0.4671860782E-05   0.6591360596E-04  -0.4671860782E-05   0.3932726687E-01  -0.7192568515E-02   0.0000000000E+00  -0.1107859765E-01
   0.1718203734E+00   0.1160647368E+00   0.6271221132E-04  -0.6507105028E-05   0.6271221132E-04  -0.6507105028E-05   0.4690040532E-01  -0.6442484467E-02   0.0000000000E+00  -0.7877102530E-02
   0.1651931322E+00   0.1197261021E+00   0.6036061631E-04  -0.7504940509E-05   0.6036061631E-04  -0.7504940509E-05   0.4879414687E-01  -0.7371560209E-02   0.0000000000E+00  -0.7352360988E-02
   0.1294430396E+00   0.1119206015E+00   0.5253680552E-04  -0.1101275625E-04   0.5253680552E-04  -0.1101275625E-04   0.5312165401E-01  -0.1125815542E-01   0.0000000000E+00  -0.7627059190E-02
   0.1387549660E+00   0.1085836468E+00   0.5592498126E-04  -0.9215085404E-05   0.5592498126E-04  -0.9215085404E-05   0.4990949768E-01  -0.1068166691E-01   0.0000000000E+00  -0.8718024687E-02
   0.1345777522E+00   0.1213689860E+00   0.5171508833E-04  -0.1149400592E-04   0.5171508833E-04  -0.1149400592E-04   0.5460713755E-01  -0.1046659192E-01   0.0000000000E+00  -0.5912233754E-02
   0.1249916258E+00   0.1410893931E+00   0.4464387975E-04  -0.1575893824E-04   0.4464387975E-04  -0.1575893824E-04   0.5994902302E-01  -0.8915850914E-02   0.0000000000E+00  -0.1060059590E-02
   0.1316954678E+00   0.1339132414E+00   0.4813990795E-04  -0.1363832391E-04   0.4813990795E-04  -0.1363832391E-04   0.5773284246E-01  -0.9574017105E-02   0.0000000000E+00  -0.3068864140E-02
   0.1115977461E+00   0.1340814477E+00   0.4180503222E-04  -0.1734013527E-04   0.4180503222E-04  -0.1734013527E-04   0.6196805525E-01  -0.9345832499E-02   0.0000000000E+00  -0.1034641354E-02
   0.1954053742E+00   0.1553488211E+00   0.6250061625E-04  -0.8382448375E-05   0.6250061625E-04  -0.8382448375E-05   0.5234923537E-01  -0.3344854136E-02   0.0000000000E+00  -0.3813087825E-02
   0.9235948097E-02   0.1250581577E+00   0.4329601148E-05  -0.3704700341E-04   0.4329601148E-05  -0.3704700341E-04   0.9547137328E-01   0.1461188782E-01   0.0000000000E+00  -0.1590861926E-02
   0.8773418503E-01   0.2409158409E+00   0.1965456653E-04  -0.3353767579E-04   0.1965456653E-04  -0.3353767579E-04   0.5112979472E-01  -0.1698985580E-04   0.0000000000E+00   0.2284870255E-02
   0.9411984791E-02   0.2249398348E+00   0.2181947958E-05  -0.4225948408E-04   0.2181947958E-05  -0.4225948408E-04   0.4726540875E-01   0.1446310104E-02   0.0000000000E+00   0.2075996100E-02
   0.2494230372E+00   0.1014757036E+00   0.8121084924E-04  -0.1923500063E-05   0.8121084924E-04  -0.1923500063E-05   0.3697652260E-01   0.2881679002E-02   0.0000000000E+00  -0.5699519319E-02
   0.9527009492E-01   0.5095735636E-01   0.6727395766E-04  -0.1133195597E-04   0.6727395766E-04  -0.1133195597E-04  -0.3826114710E-02  -0.1464400424E-01   0.0000000000E+00   0.6307237800E-02
   0.1105546978E+00   0.1142500741E-01   0.7720672733E-04  -0.1963802270E-05   0.7720672733E-04  -0.1963802270E-05   0.5151389801E-04  -0.2976688591E-01   0.0000000000E+00  -0.2789879931E-04
   0.1988970878E+00   0.2844108145E-01   0.8073352125E-04  -0.2939863142E-06   0.8073352125E-04  -0.2939863142E-06   0.2210840426E-01   0.4016601969E-02   0.0000000000E+00  -0.4493563847E-02
   0.1473465764E+00   0.2242087962E+00   0.3947607324E-04  -0.2133378994E-04   0.3947607324E-04  -0.2133378994E-04   0.6042001287E-01  -0.1364312418E-02   0.0000000000E+00   0.2306327942E-02
   0.9701914041E-02   0.1079280178E+00   0.6261000605E-05  -0.3534039983E-04   0.6261000605E-05  -0.3534039983E-04   0.1323470358E+00   0.8478038200E-02   0.0000000000E+00   0.9160231337E-04
   0.8645117570E-02   0.1421509780E+00   0.3299367611E-05  -0.3799337172E-04   0.3299367611E-05  -0.3799337172E-04   0.8153636656E-01   0.1551687830E-01   0.0000000000E+00   0.1023291675E-03
   0.4194289763E-01   0.1452332107E+00   0.1542848823E-04  -0.3412352079E-04   0.1542848823E-04  -0.3412352079E-04   0.7828406802E-01   0.7882131868E-02   0.0000000000E+00   0.3427026702E-02
   0.8376526997E-02   0.1588741764E+00   0.2797880945E-05  -0.3872069986E-04   0.2797880945E-05  -0.3872069986E-04   0.7015649354E-01   0.1168607332E-01   0.0000000000E+00   0.3069874018E-02
   0.2543541700E-01   0.1761269917E+00   0.7715798507E-05  -0.3835328592E-04   0.7715798507E-05  -0.3835328592E-04   0.6084752831E-01   0.6598491822E-02   0.0000000000E+00   0.4586557759E-02
   0.2898894264E-01   0.2414825099E+00   0.5802633784E-05  -0.4213368105E-04   0.5802633784E-05  -0.4213368105E-04   0.3735452556E-01  -0.1317975634E-03   0.0000000000E+00   0.6977377147E-04
   0.2502903545E-01   0.1600457448E+00   0.8305147669E-05  -0.3752762392E-04   0.8305147669E-05  -0.3752762392E-04   0.6640117685E-01   0.9252678096E-02   0.0000000000E+00   0.4584384301E-02
   0.3399295556E+00   0.9486321337E-02   0.9859603044E-04  -0.3736340627E-08   0.9859603044E-04  -0.3736340627E-08   0.2987148583E-01   0.8811905174E-02   0.0000000000E+00  -0.1592656127E-03
   0.3401893340E+00   0.2852240263E-01   0.9859188698E-04  -0.3555751016E-07   0.9859188698E-04  -0.3555751016E-07   0.3057922262E-01   0.8520087681E-02   0.0000000000E+00  -0.4554607365E-03
   0.3212789679E+00   0.6597878955E-01   0.9541283422E-04  -0.3632880622E-06   0.9541283422E-04  -0.3632880622E-06   0.3270614983E-01   0.7541290450E-02   0.0000000000E+00  -0.1212088632E-02
   0.3216452189E+00   0.8518821907E-01   0.9508243960E-04  -0.7349252375E-06   0.9508243960E-04  -0.7349252375E-06   0.3497560043E-01   0.6648888924E-02   0.0000000000E+00  -0.1423986365E-02
   0.3216333866E+00   0.1241743861E+00   0.9415080333E-04  -0.2035823759E-05   0.9415080333E-04  -0.2035823759E-05   0.4067357765E-01   0.4566230551E-02   0.0000000000E+00  -0.1547031485E-02
   0.2987402118E+00   0.9167592164E-02   0.9304826613E-04  -0.6918049217E-08   0.9304826613E-04  -0.6918049217E-08   0.2921606653E-01   0.8408122771E-02   0.0000000000E+00  -0.8102026473E-03
   0.2230443629E+00   0.1550623844E+00   0.6970794146E-04  -0.6396539943E-05   0.6970794146E-04  -0.6396539943E-05   0.5168288165E-01  -0.1336205298E-02   0.0000000000E+00  -0.3716011938E-02
   0.2192057958E+00   0.2796876145E-01   0.8288165423E-04  -0.1839511574E-06   0.8288165423E-04  -0.1839511574E-06   0.2215724983E-01   0.5217103518E-02   0.0000000000E+00  -0.2824435388E-02
   0.1955229003E+00   0.9437572921E-02   0.8139551187E-04  -0.8158963710E-07   0.8139551187E-04  -0.8158963710E-07   0.1891096349E-01   0.3430267294E-02   0.0000000000E+00  -0.3665646646E-02
   0.1326308046E+00   0.1177182661E-01   0.7783254327E-04  -0.8202304138E-06   0.7783254327E-04  -0.8202304138E-06   0.6755313506E-03  -0.1437171614E-01   0.0000000000E+00   0.1673674283E-05
   0.3405303163E+00   0.2404341674E+00   0.9714601106E-04  -0.9916074163E-05   0.9714601106E-04  -0.9916074163E-05   0.5903834825E-01   0.5345024188E-04   0.0000000000E+00  -0.1132527384E-05
   0.2824523636E+00   0.2407669701E+00   0.7980506211E-04  -0.1091618472E-04   0.7980506211E-04  -0.1091618472E-04   0.6118437773E-01   0.1672092066E-04   0.0000000000E+00  -0.4785351151E-03
   0.3405823484E+00   0.1635131580E+00   0.9769944518E-04  -0.4015481377E-05   0.9769944518E-04  -0.4015481377E-05   0.4851886676E-01   0.2286245525E-02   0.0000000000E+00  -0.2118237943E-05
   0.3405950713E+00   0.1441401666E+00   0.9786551387E-04  -0.2912566548E-05   0.9786551387E-04  -0.2912566548E-05   0.4542276026E-01   0.3198867207E-02   0.0000000000E+00  -0.1530900152E-05
   0.3406451833E+00   0.1247421692E+00   0.9804039385E-04  -0.1993012302E-05   0.9804039385E-04  -0.1993012302E-05   0.4226619689E-01   0.4130365716E-02   0.0000000000E+00  -0.1020385912E-02
   0.3406842000E+00   0.1053734777E+00   0.9820699827E-04  -0.1264537974E-05   0.9820699827E-04  -0.1264537974E-05   0.3932953290E-01   0.5234083181E-02   0.0000000000E+00  -0.7851042336E-06
   0.3406517011E+00   0.8607094617E-01   0.9834880545E-04  -0.7241884292E-06   0.9834880545E-04  -0.7241884292E-06   0.3638234420E-01   0.6217786754E-02   0.0000000000E+00  -0.9892527872E-03
   0.3403881692E+00   0.4764962273E-01   0.9854423947E-04  -0.1392965776E-06   0.9854423947E-04  -0.1392965776E-06   0.3214766148E-01   0.7998329449E-02   0.0000000000E+00  -0.6678448458E-06
   0.9639455114E-02   0.2415774963E+00   0.1898076965E-05  -0.4327248281E-04   0.1898076965E-05  -0.4327248281E-04   0.4017589062E-01   0.2331951072E-03   0.0000000000E+00   0.8863335411E-03
   0.4674213226E-01   0.2073888175E+00   0.1231505692E-04  -0.3780648637E-04   0.1231505692E-04  -0.3780648637E-04   0.5276281431E-01   0.1305698251E-02   0.0000000000E+00   0.5395306879E-02
   0.2754436572E-01   0.2082981242E+00   0.7145085570E-05  -0.4010826240E-04   0.7145085570E-05  -0.4010826240E-04   0.5092392903E-01   0.2047111256E-02   0.0000000000E+00   0.3580577769E-02
   0.4796537066E-01   0.2240239235E+00   0.1146999041E-04  -0.3883787122E-04   0.1146999041E-04  -0.3883787122E-04   0.4900800574E-01   0.1068128908E-02   0.0000000000E+00   0.3846518640E-02
   0.1463482243E+00   0.2412626980E+00   0.3676929013E-04  -0.2310900614E-04   0.3676929013E-04  -0.2310900614E-04   0.6349336909E-01  -0.1327801004E-03   0.0000000000E+00   0.6417108772E-03
   0.1658189803E+00   0.2412350204E+00   0.4294440413E-04  -0.2019141438E-04   0.4294440413E-04  -0.2019141438E-04   0.6433876834E-01  -0.1116453304E-03   0.0000000000E+00   0.2218840313E-03
   0.2368821960E+00   0.9199823635E-02   0.8545310168E-04  -0.2821268163E-07   0.8545310168E-04  -0.2821268163E-07   0.2471320308E-01   0.6465279788E-02   0.0000000000E+00  -0.2153247616E-02
   0.2060868051E+00   0.2071419607E+00   0.5934669799E-04  -0.1229590853E-04   0.5934669799E-04  -0.1229590853E-04   0.5922064921E-01  -0.1128204830E-02   0.0000000000E+00  -0.7614397477E-03
   0.1279655044E+00   0.2239826984E+00   0.3363106055E-04  -0.2460567442E-04   0.3363106055E-04  -0.2460567442E-04   0.5971294206E-01  -0.1408180438E-02   0.0000000000E+00   0.3732527220E-02
   0.2047811146E+00   0.2411444551E+00   0.5548068790E-04  -0.1562084143E-04   0.5548068790E-04  -0.1562084143E-04   0.6396314767E-01  -0.5360185566E-04   0.0000000000E+00  -0.3295653900E-03
   0.2436712677E+00   0.2409191332E+00   0.6784498499E-04  -0.1263940917E-04   0.6784498499E-04  -0.1263940917E-04   0.6313454402E-01  -0.2696920847E-04   0.0000000000E+00  -0.4604702448E-03
   0.2630769024E+00   0.2408491125E+00   0.7387693272E-04  -0.1164650538E-04   0.7387693272E-04  -0.1164650538E-04   0.6216444483E-01  -0.2912920835E-05   0.0000000000E+00  -0.5031888255E-03
   0.3211722708E+00   0.2405595877E+00   0.9141676028E-04  -0.1007925967E-04   0.9141676028E-04  -0.1007925967E-04   0.5919630628E-01   0.4981780585E-04   0.0000000000E+00  -0.1519362714E-03
   0.5712317299E-01   0.9432565809E-01   0.3691437169E-04  -0.2639450677E-04   0.3691437169E-04  -0.2639450677E-04   0.8252680153E-01   0.2441397244E-01   0.0000000000E+00  -0.4024868480E-01
   0.9089677493E-02   0.2083816809E+00   0.2343626459E-05  -0.4124155631E-04   0.2343626459E-05  -0.4124155631E-04   0.5267747671E-01   0.3834394300E-02   0.0000000000E+00   0.2997594919E-04
   0.8729673712E-02   0.1918879643E+00   0.2445561071E-05  -0.4029796248E-04   0.2445561071E-05  -0.4029796248E-04   0.5804952812E-01   0.6639080418E-02   0.0000000000E+00   0.3115083706E-04
   0.2846537523E-01   0.1060700255E+00   0.1797332693E-04  -0.3332150736E-04   0.1797332693E-04  -0.3332150736E-04   0.1226460181E+00   0.1028798717E-01   0.0000000000E+00  -0.1449269405E-01
   0.8449160920E-02   0.1754032471E+00   0.2564614915E-05  -0.3946108839E-04   0.2564614915E-05  -0.3946108839E-04   0.6375788352E-01   0.9780146986E-02   0.0000000000E+00   0.4513736911E-04
   0.2554444384E-01   0.1434395087E+00   0.9594819089E-05  -0.3658239902E-04   0.9594819089E-05  -0.3658239902E-04   0.7350678948E-01   0.1160420719E-01   0.0000000000E+00   0.4111169915E-02
   0.2641627752E-01   0.1921528188E+00   0.7422173419E-05  -0.3919448971E-04   0.7422173419E-05  -0.3919448971E-04   0.5594029072E-01   0.4142298907E-02   0.0000000000E+00   0.4275533122E-02
   0.2575187539E+00   0.9158449770E-02   0.8783507452E-04  -0.1744520781E-07   0.8783507452E-04  -0.1744520781E-07   0.2596256598E-01   0.7486864637E-02   0.0000000000E+00  -0.1601769750E-04
   0.2472465623E+00   0.8327499167E-01   0.8245690235E-04  -0.1213816313E-05   0.8245690235E-04  -0.1213816313E-05   0.3506283701E-01   0.2706620490E-02   0.0000000000E+00  -0.6288868549E-02
   0.2999757356E+00   0.2764356478E-01   0.9301541913E-04  -0.4554612632E-07   0.9301541913E-04  -0.4554612632E-07   0.3009616363E-01   0.8322976326E-02   0.0000000000E+00  -0.9185348572E-03
   0.3405459495E+00   0.6683297407E-01   0.9846173560E-04  -0.3573876822E-06   0.9846173560E-04  -0.3573876822E-06   0.3411398103E-01   0.7204962881E-02   0.0000000000E+00  -0.6656843312E-06
   0.3207524800E+00   0.4690619551E-01   0.9565099281E-04  -0.1429678646E-06   0.9565099281E-04  -0.1429678646E-06   0.3270614983E-01   0.7541290450E-02   0.0000000000E+00  -0.1212088632E-02
   0.3193542080E+00   0.9280189835E-02   0.9580014588E-04  -0.4682341004E-08   0.9580014588E-04  -0.4682341004E-08   0.2952649442E-01   0.8819106974E-02   0.0000000000E+00  -0.4470852710E-05
   0.3406326814E+00   0.2021187393E+00   0.9741081596E-04  -0.6713111676E-05   0.9741081596E-04  -0.6713111676E-05   0.5434907480E-01   0.8262361764E-03   0.0000000000E+00  -0.2335675616E-05
   0.3406187958E+00   0.2213173007E+00   0.9727828721E-04  -0.8265382950E-05   0.9727828721E-04  -0.8265382950E-05   0.5704466430E-01   0.3135400985E-03   0.0000000000E+00  -0.3912681497E-03
   0.3406003805E+00   0.1828395826E+00   0.9754738484E-04  -0.5288176950E-05   0.9754738484E-04  -0.5288176950E-05   0.5164052386E-01   0.1427164702E-02   0.0000000000E+00  -0.7284908322E-03
   0.2831236096E+00   0.2033713463E+00   0.8166442286E-04  -0.7664624642E-05   0.8166442286E-04  -0.7664624642E-05   0.5523831003E-01   0.5346232400E-03   0.0000000000E+00  -0.1554127366E-02
   0.2025343725E+00   0.4769852227E-01   0.7936848643E-04  -0.6690012178E-06   0.7936848643E-04  -0.6690012178E-06   0.2778250187E-01   0.1491823918E-02   0.0000000000E+00  -0.8036192530E-02
   0.6791887803E-01   0.1192815721E+00   0.3044818852E-04  -0.2571818722E-04   0.3044818852E-04  -0.2571818722E-04   0.6987482812E-01  -0.3746742431E-02   0.0000000000E+00  -0.7512315483E-03
   0.6810694503E-01   0.2409746486E+00   0.1463172689E-04  -0.3698732186E-04   0.1463172689E-04  -0.3698732186E-04   0.5106272906E-01   0.7257388141E-04   0.0000000000E+00   0.4052003267E-02
   0.4811442563E-01   0.1096201157E+00   0.2587406557E-04  -0.2984659552E-04   0.2587406557E-04  -0.2984659552E-04   0.8541042157E-01   0.7553219232E-02   0.0000000000E+00  -0.3025454372E-02
   0.6735514493E-01   0.2050287449E+00   0.1822095323E-04  -0.3429954924E-04   0.1822095323E-04  -0.3429954924E-04   0.5807012109E-01  -0.3505462958E-03   0.0000000000E+00   0.7228025794E-02
   0.4849456948E-01   0.2412356715E+00   0.1001287797E-04  -0.3996048026E-04   0.1001287797E-04  -0.3996048026E-04   0.4150000059E-01  -0.8108586634E-04   0.0000000000E+00   0.1032831328E-03
   0.3217707736E+00   0.1045728510E+00   0.9466027810E-04  -0.1285913533E-05   0.9466027810E-04  -0.1285913533E-05   0.3766964185E-01   0.5633882367E-02   0.0000000000E+00  -0.1530777603E-02
   0.1861875426E+00   0.2240521247E+00   0.5146855183E-04  -0.1594540943E-04   0.5146855183E-04  -0.1594540943E-04   0.6288202384E-01  -0.2340933270E-03   0.0000000000E+00   0.8342089879E-04
   0.3214133320E+00   0.1439054748E+00   0.9360223662E-04  -0.2987974612E-05   0.9360223662E-04  -0.2987974612E-05   0.4386516682E-01   0.3515347067E-02   0.0000000000E+00  -0.1489003374E-02
   0.3213246016E+00   0.1635741221E+00   0.9308393589E-04  -0.4125716603E-05   0.9308393589E-04  -0.4125716603E-05   0.4859530836E-01   0.2213237535E-02   0.0000000000E+00  -0.8573736476E-03
   0.2242405596E+00   0.2410314211E+00   0.6170753186E-04  -0.1394871305E-04   0.6170753186E-04  -0.1394871305E-04   0.6313454402E-01  -0.2696920847E-04   0.0000000000E+00  -0.4604702448E-03
   0.2781277917E+00   0.9138899523E-02   0.9038036978E-04  -0.1089366258E-07   0.9038036978E-04  -0.1089366258E-07   0.2760988929E-01   0.8114898391E-02   0.0000000000E+00  -0.1042614986E-04
   0.2829986491E+00   0.2222271604E+00   0.8072956318E-04  -0.9251533773E-05   0.8072956318E-04  -0.9251533773E-05   0.5860533641E-01   0.1165729630E-03   0.0000000000E+00  -0.1241465325E-02
   0.2843715243E-01   0.2247328851E+00   0.6658679020E-05  -0.4110747107E-04   0.6658679020E-05  -0.4110747107E-04   0.4501260303E-01   0.5025934493E-03   0.0000000000E+00   0.2295858008E-02
   0.1268803097E+00   0.2412140177E+00   0.3077859565E-04  -0.2638642000E-04   0.3077859565E-04  -0.2638642000E-04   0.6172516266E-01  -0.1408890562E-03   0.0000000000E+00   0.1125332375E-02
   0.7077165674E-01   0.8205859362E-01   0.4813763421E-04  -0.2172682809E-04   0.4813763421E-04  -0.2172682809E-04   0.3857954333E-01   0.2414344639E-01   0.0000000000E+00  -0.2957172244E-01
   0.2250586112E+00   0.2233971166E+00   0.6344736010E-04  -0.1223595424E-04   0.6344736010E-04  -0.1223595424E-04   0.6201547413E-01  -0.8967032568E-04   0.0000000000E+00  -0.7513793666E-03
   0.1852993438E+00   0.2411934077E+00   0.4920727678E-04  -0.1769238666E-04   0.4920727678E-04  -0.1769238666E-04   0.6443049786E-01  -0.8307057055E-04   0.0000000000E+00  -0.1054485122E-03
   0.1684640638E+00   0.1920197877E+00   0.5000788913E-04  -0.1502002473E-04   0.5000788913E-04  -0.1502002473E-04   0.5819548054E-01  -0.2527304290E-02   0.0000000000E+00  -0.3112524768E-03
   0.2637799876E+00   0.2225679062E+00   0.7508554793E-04  -0.9964261805E-05   0.7508554793E-04  -0.9964261805E-05   0.5860533641E-01   0.1165729630E-03   0.0000000000E+00  -0.1241465325E-02
   0.3214664885E+00   0.2024983062E+00   0.9220710849E-04  -0.6874799562E-05   0.9220710849E-04  -0.6874799562E-05   0.5596603636E-01   0.4678495208E-03   0.0000000000E+00  -0.7191004571E-03
   0.3022635460E+00   0.2028597785E+00   0.8695727055E-04  -0.7180233627E-05   0.8695727055E-04  -0.7180233627E-05   0.5478335614E-01   0.6904114309E-03   0.0000000000E+00  -0.1107023616E-02
   0.1073462953E+00   0.2410632249E+00   0.2505182605E-04  -0.2992003662E-04   0.2505182605E-04  -0.2992003662E-04   0.5533799814E-01  -0.9324637057E-04   0.0000000000E+00   0.2065898712E-02
   0.5736877136E-01   0.1477976461E+00   0.2061026591E-04  -0.3122632440E-04   0.2061026591E-04  -0.3122632440E-04   0.6977939782E-01   0.3490876469E-02   0.0000000000E+00   0.6602722917E-02
   0.4439314058E-01   0.1283734214E+00   0.1906454133E-04  -0.3232528697E-04   0.1906454133E-04  -0.3232528697E-04   0.7828406802E-01   0.7882131868E-02   0.0000000000E+00   0.3427026702E-02
   0.8376885574E-01   0.6748825859E-01   0.5866025876E-04  -0.1659852953E-04   0.5866025876E-04  -0.1659852953E-04   0.3032435645E-01  -0.6066565745E-02   0.0000000000E+00  -0.1276161695E-01
   0.1389729921E+00   0.3312333604E-01   0.7529294781E-04  -0.1872090185E-05   0.7529294781E-04  -0.1872090185E-05   0.4993374815E-02  -0.1176458751E-01   0.0000000000E+00  -0.6676294629E-02
   0.1054386469E+00   0.3255463803E-01   0.7360093942E-04  -0.6154684910E-05   0.7360093942E-04  -0.6154684910E-05   0.4662014852E-02  -0.1962148104E-01   0.0000000000E+00  -0.6827653034E-02
   0.1542239773E+00   0.1011944953E-01   0.7869815880E-04  -0.3146811784E-06   0.7869815880E-04  -0.3146811784E-06   0.6715009893E-02  -0.4338752297E-02   0.0000000000E+00  -0.1936681329E-03
   0.2697138297E-01   0.1257134486E+00   0.1228200759E-04  -0.3529743898E-04   0.1228200759E-04  -0.3529743898E-04   0.9977144322E-01   0.1266982992E-01   0.0000000000E+00  -0.5162580547E-02
   0.2162076769E+00   0.9298685337E-02   0.8328522076E-04  -0.4686633609E-07   0.8328522076E-04  -0.4686633609E-07   0.2215724983E-01   0.5217103518E-02   0.0000000000E+00  -0.2824435388E-02
   0.2848612866E+00   0.1026066009E+00   0.8781153062E-04  -0.1465360727E-05   0.8781153062E-04  -0.1465360727E-05   0.3870844237E-01   0.3888651236E-02   0.0000000000E+00  -0.4064349141E-02
   0.3028094688E+00   0.8436728847E-01   0.9187251177E-04  -0.7794530975E-06   0.9187251177E-04  -0.7794530975E-06   0.3745519345E-01   0.5303892895E-02   0.0000000000E+00  -0.2547169647E-02
   0.3201144970E+00   0.2798262329E-01   0.9578624410E-04  -0.3795727567E-07   0.9578624410E-04  -0.3795727567E-07   0.3098315243E-01   0.8238072775E-02   0.0000000000E+00  -0.8907564310E-03
   0.3031253657E+00   0.1036661858E+00   0.9118721989E-04  -0.1352335162E-05   0.9118721989E-04  -0.1352335162E-05   0.3745519345E-01   0.5303892895E-02   0.0000000000E+00  -0.2547169647E-02
   0.1676311542E+00   0.2078310565E+00   0.4776458042E-04  -0.1671810017E-04   0.4776458042E-04  -0.1671810017E-04   0.6005400154E-01  -0.1887197167E-02   0.0000000000E+00   0.1574192240E-02
   0.1749025697E+00   0.9627615803E-02   0.7985520103E-04  -0.1519133671E-06   0.7985520103E-04  -0.1519133671E-06   0.1232845129E-01   0.5913263660E-03   0.0000000000E+00  -0.7674324171E-04
   0.1788289354E+00   0.2894311498E-01   0.7883970219E-04  -0.4928743535E-06   0.7883970219E-04  -0.4928743535E-06   0.2015008219E-01   0.1009973296E-03   0.0000000000E+00  -0.8060908161E-02
   0.3028601840E+00   0.1233275690E+00   0.9032650230E-04  -0.2135982782E-05   0.9032650230E-04  -0.2135982782E-05   0.4056749940E-01   0.4234437506E-02   0.0000000000E+00  -0.2556131580E-02
   0.4457647200E-01   0.1915164029E+00   0.1266148648E-04  -0.3697168171E-04   0.1266148648E-04  -0.3697168171E-04   0.5712154714E-01   0.2666179078E-02   0.0000000000E+00   0.6403705767E-02
   0.4258579318E-01   0.1761392932E+00   0.1298926536E-04  -0.3618489429E-04   0.1298926536E-04  -0.3618489429E-04   0.6600668633E-01   0.6049743191E-02   0.0000000000E+00   0.6682100852E-02
   0.4153578809E-01   0.1609282391E+00   0.1373740861E-04  -0.3530058953E-04   0.1373740861E-04  -0.3530058953E-04   0.7152658586E-01   0.7581659047E-02   0.0000000000E+00   0.6005485811E-02
   0.3020776514E+00   0.6528501478E-01   0.9240621225E-04  -0.3912206048E-06   0.9240621225E-04  -0.3912206048E-06   0.3224253875E-01   0.7240864763E-02   0.0000000000E+00  -0.2042860782E-02
   0.3021628975E+00   0.1433854386E+00   0.8932350847E-04  -0.3144452236E-05   0.8932350847E-04  -0.3144452236E-05   0.4727258968E-01   0.2230585245E-02   0.0000000000E+00  -0.2229672877E-02
   0.2597076210E+00   0.2753501320E-01   0.8770776241E-04  -0.8323588060E-07   0.8770776241E-04  -0.8323588060E-07   0.2668267194E-01   0.7348928960E-02   0.0000000000E+00  -0.1621639139E-02
   0.2421392695E+00   0.4622187185E-01   0.8456423484E-04  -0.3213118897E-06   0.8456423484E-04  -0.3213118897E-06   0.2982910852E-01   0.4947831568E-02   0.0000000000E+00  -0.5065574242E-02
   0.2798376778E+00   0.2750624458E-01   0.9031316761E-04  -0.5974742026E-07   0.9031316761E-04  -0.5974742026E-07   0.2929431903E-01   0.7966026893E-02   0.0000000000E+00  -0.1415478874E-02
   0.3213810492E+00   0.1831109576E+00   0.9262261169E-04  -0.5428432604E-05   0.9262261169E-04  -0.5428432604E-05   0.5024445401E-01   0.1709211853E-02   0.0000000000E+00  -0.1180273604E-02
   0.2444557430E+00   0.2229298727E+00   0.6932562232E-04  -0.1093901593E-04   0.6932562232E-04  -0.1093901593E-04   0.5843447800E-01  -0.1099224439E-03   0.0000000000E+00  -0.1612888144E-02
   0.2447224593E+00   0.2051710498E+00   0.7075428180E-04  -0.9357225862E-05   0.7075428180E-04  -0.9357225862E-05   0.5754109910E-01  -0.3299773007E-03   0.0000000000E+00  -0.1866644736E-02
   0.1667300321E+00   0.2241777990E+00   0.4544166804E-04  -0.1842939061E-04   0.4544166804E-04  -0.1842939061E-04   0.6065869241E-01  -0.1180125018E-02   0.0000000000E+00   0.1004542230E-02
   0.1718474252E+00   0.7640686219E-01   0.7054597711E-04  -0.2937603585E-05   0.7054597711E-04  -0.2937603585E-05   0.3553446206E-01  -0.6196637393E-02   0.0000000000E+00  -0.1168165808E-01
   0.2056429669E+00   0.2238377505E+00   0.5748258937E-04  -0.1389438474E-04   0.5748258937E-04  -0.1389438474E-04   0.6263782540E-01  -0.1590414443E-03   0.0000000000E+00  -0.4244545182E-03
   0.3021824072E+00   0.2219271218E+00   0.8628948654E-04  -0.8754212949E-05   0.8628948654E-04  -0.8754212949E-05   0.5739071314E-01   0.2727240004E-03   0.0000000000E+00  -0.7491759895E-03
   0.3018069978E+00   0.2406696666E+00   0.8564250770E-04  -0.1040506184E-04   0.8564250770E-04  -0.1040506184E-04   0.5963061949E-01   0.4276558040E-04   0.0000000000E+00  -0.2899256957E-03
   0.1083096407E+00   0.2234309567E+00   0.2789540542E-04  -0.2818590765E-04   0.2789540542E-04  -0.2818590765E-04   0.5745729120E-01  -0.3018721288E-03   0.0000000000E+00   0.3370220676E-02
   0.8824626435E-01   0.2228265215E+00   0.2225250210E-04  -0.3194810629E-04   0.2225250210E-04  -0.3194810629E-04   0.5704697659E-01  -0.6557320735E-03   0.0000000000E+00   0.6191230438E-02
   0.1295050160E+00   0.2072260669E+00   0.3630022590E-04  -0.2270765667E-04   0.3630022590E-04  -0.2270765667E-04   0.5992832875E-01  -0.2811082110E-02   0.0000000000E+00   0.3925188204E-02
   0.2253565124E+00   0.2062026577E+00   0.6508667995E-04  -0.1065350464E-04   0.6508667995E-04  -0.1065350464E-04   0.5844208918E-01  -0.7190387022E-03   0.0000000000E+00  -0.1463841121E-02
   0.2257425384E+00   0.6553985982E-01   0.8067731208E-04  -0.9021530087E-06   0.8067731208E-04  -0.9021530087E-06   0.3305200892E-01   0.2405212742E-02   0.0000000000E+00  -0.6944209818E-02
   0.6988571708E-01   0.1545033939E+00   0.2402593839E-04  -0.2914656568E-04   0.2402593839E-04  -0.2914656568E-04   0.6717970846E-01   0.7205383689E-03   0.0000000000E+00   0.7278964749E-02
   0.1499380670E+00   0.1915146341E+00   0.4452335346E-04  -0.1764283086E-04   0.4452335346E-04  -0.1764283086E-04   0.5976900836E-01  -0.3534839470E-02   0.0000000000E+00   0.2740492871E-02
   0.2827201437E+00   0.1839514092E+00   0.8258371973E-04  -0.6159168295E-05   0.8258371973E-04  -0.6159168295E-05   0.5291226399E-01   0.6080249887E-03   0.0000000000E+00  -0.2454507854E-02
   0.8295101146E-01   0.1639604111E+00   0.2715006505E-04  -0.2730670619E-04   0.2715006505E-04  -0.2730670619E-04   0.6572207678E-01  -0.3969897329E-02   0.0000000000E+00   0.5668711189E-02
   0.2395004493E+00   0.2766523897E-01   0.8522050534E-04  -0.1209910194E-06   0.8522050534E-04  -0.1209910194E-06   0.2661566820E-01   0.6644435755E-02   0.0000000000E+00  -0.2646779298E-02
   0.2841836823E+00   0.8365500215E-01   0.8872204224E-04  -0.8630748037E-06   0.8872204224E-04  -0.8630748037E-06   0.3583830972E-01   0.5563880249E-02   0.0000000000E+00  -0.2979186824E-02
   0.2326128466E+00   0.1024561723E+00   0.7788029962E-04  -0.2352597585E-05   0.7788029962E-04  -0.2352597585E-05   0.4116809987E-01   0.6972078232E-03   0.0000000000E+00  -0.6185435113E-02
   0.2814630490E+00   0.4605903349E-01   0.8998787905E-04  -0.1892280208E-06   0.8998787905E-04  -0.1892280208E-06   0.3159845451E-01   0.6740448318E-02   0.0000000000E+00  -0.2931644291E-02
   0.3011006566E+00   0.4636548851E-01   0.9279319579E-04  -0.1586710449E-06   0.9279319579E-04  -0.1586710449E-06   0.3224253875E-01   0.7240864763E-02   0.0000000000E+00  -0.2042860782E-02
   0.2829492779E+00   0.6479411309E-01   0.8944508271E-04  -0.4455669599E-06   0.8944508271E-04  -0.4455669599E-06   0.3312957831E-01   0.6540662768E-02   0.0000000000E+00  -0.2687429494E-02
   0.1480235477E+00   0.4991163473E-01   0.7269084562E-04  -0.2383386800E-05   0.7269084562E-04  -0.2383386800E-05   0.1924052279E-01  -0.5417227689E-02   0.0000000000E+00  -0.1120098944E-01
   0.1590855190E+00   0.2971779346E-01   0.7719349596E-04  -0.8855595990E-06   0.7719349596E-04  -0.8855595990E-06   0.1131936023E-01  -0.6214994456E-02   0.0000000000E+00  -0.8507856307E-02
   0.3214113556E+00   0.2216412272E+00   0.9180569076E-04  -0.8434266564E-05   0.9180569076E-04  -0.8434266564E-05   0.5836000850E-01   0.1054208885E-03   0.0000000000E+00  -0.4173709883E-03
   0.6175253288E-01   0.1338943931E+00   0.2454004014E-04  -0.2886620605E-04   0.2454004014E-04  -0.2886620605E-04   0.7310442995E-01   0.2261486230E-02   0.0000000000E+00   0.4806980528E-02
   0.1343679910E+00   0.1571950123E+00   0.4471537560E-04  -0.1622024754E-04   0.4471537560E-04  -0.1622024754E-04   0.6091296967E-01  -0.7094429473E-02   0.0000000000E+00   0.1630377093E-02
   0.5975101682E-01   0.1748305278E+00   0.1846333533E-04  -0.3313733757E-04   0.1846333533E-04  -0.3313733757E-04   0.6401056160E-01   0.5004952904E-03   0.0000000000E+00   0.7865418812E-02
   0.5789311774E-01   0.1609434894E+00   0.1918888245E-04  -0.3229840852E-04   0.1918888245E-04  -0.3229840852E-04   0.6977939782E-01   0.3490876469E-02   0.0000000000E+00   0.6602722917E-02
   0.9916817804E-01   0.1707604389E+00   0.3153473288E-04  -0.2463094714E-04   0.3153473288E-04  -0.2463094714E-04   0.6338118174E-01  -0.5197043377E-02   0.0000000000E+00   0.4953271945E-02
   0.2248915405E+00   0.1892192611E+00   0.6658460846E-04  -0.9181829417E-05   0.6658460846E-04  -0.9181829417E-05   0.5674311096E-01  -0.6826785460E-03   0.0000000000E+00  -0.2014611379E-02
   0.3020562542E+00   0.1833753961E+00   0.8763812014E-04  -0.5703076702E-05   0.8763812014E-04  -0.5703076702E-05   0.5053110315E-01   0.1454695788E-02   0.0000000000E+00  -0.1903463941E-02
   0.2846392566E+00   0.1218649862E+00   0.8665518099E-04  -0.2279639938E-05   0.8665518099E-04  -0.2279639938E-05   0.4043776248E-01   0.3717369334E-02   0.0000000000E+00  -0.3538891143E-02
   0.2827140534E+00   0.1422020617E+00   0.8502194440E-04  -0.3378137315E-05   0.8502194440E-04  -0.3378137315E-05   0.4574495868E-01   0.1844907147E-02   0.0000000000E+00  -0.3636253327E-02
   0.2618444185E+00   0.4602359610E-01   0.8724599702E-04  -0.2402639004E-06   0.8724599702E-04  -0.2402639004E-06   0.2835572625E-01   0.6819331354E-02   0.0000000000E+00  -0.2960960317E-02
   0.2442157991E+00   0.1874934909E+00   0.7206667727E-04  -0.7888781671E-05   0.7206667727E-04  -0.7888781671E-05   0.5305897544E-01  -0.2229347048E-03   0.0000000000E+00  -0.2982011307E-02
   0.6800719242E-01   0.2230638322E+00   0.1671903255E-04  -0.3564241368E-04   0.1671903255E-04  -0.3564241368E-04   0.5164380854E-01   0.5128965199E-03   0.0000000000E+00   0.5058814785E-02
   0.3018303386E+00   0.1635140782E+00   0.8839119063E-04  -0.4348751530E-05   0.8839119063E-04  -0.4348751530E-05   0.4907075839E-01   0.1636905067E-02   0.0000000000E+00  -0.2442837894E-02
   0.1868488370E+00   0.2076836349E+00   0.5356373607E-04  -0.1430656692E-04   0.5356373607E-04  -0.1430656692E-04   0.5922064921E-01  -0.1128204830E-02   0.0000000000E+00  -0.7614397477E-03
   0.1825762261E+00   0.4902205304E-01   0.7680128473E-04  -0.1043241516E-05   0.7680128473E-04  -0.1043241516E-05   0.2015008219E-01   0.1009973296E-03   0.0000000000E+00  -0.8060908161E-02
   0.1485609608E+00   0.2076969023E+00   0.4200878990E-04  -0.1952659884E-04   0.4200878990E-04  -0.1952659884E-04   0.6005400154E-01  -0.1887197167E-02   0.0000000000E+00   0.1574192240E-02
   0.1091948693E+00   0.6020149580E-01   0.6500371419E-04  -0.8239463803E-05   0.6500371419E-04  -0.8239463803E-05   0.1649981357E-01  -0.1479631724E-01   0.0000000000E+00  -0.1088198020E-01
   0.2639973485E+00   0.2041855831E+00   0.7628386155E-04  -0.8375946393E-05   0.7628386155E-04  -0.8375946393E-05   0.5586687325E-01   0.3104607233E-03   0.0000000000E+00  -0.1862507632E-02
   0.1473891760E+00   0.7129070833E-01   0.6749037761E-04  -0.4107935604E-05   0.6749037761E-04  -0.4107935604E-05   0.2814463680E-01  -0.9697301066E-02   0.0000000000E+00  -0.1355711880E-01
   0.1099584823E+00   0.2062132619E+00   0.3054900617E-04  -0.2625017984E-04   0.3054900617E-04  -0.2625017984E-04   0.5993481079E-01  -0.2529852966E-02   0.0000000000E+00   0.5641486586E-02
   0.7547027964E-01   0.1790753603E+00   0.2301560928E-04  -0.3043558796E-04   0.2301560928E-04  -0.3043558796E-04   0.6410645193E-01  -0.1392212885E-02   0.0000000000E+00   0.7441196627E-02
   0.8905057542E-01   0.2044474504E+00   0.2455207169E-04  -0.3015718623E-04   0.2455207169E-04  -0.3015718623E-04   0.5704697659E-01  -0.6557320735E-03   0.0000000000E+00   0.6191230438E-02
   0.1219409723E+00   0.4405059102E-01   0.7158804979E-04  -0.4352826706E-05   0.7158804979E-04  -0.4352826706E-05   0.9173503817E-02  -0.1336201306E-01   0.0000000000E+00  -0.9293498169E-02
   0.2223617180E+00   0.4674788842E-01   0.8194364661E-04  -0.4517044601E-06   0.8194364661E-04  -0.4517044601E-06   0.2878923747E-01   0.3493998297E-02   0.0000000000E+00  -0.6419176668E-02
   0.2669570332E+00   0.1016614402E+00   0.8451023304E-04  -0.1641943945E-05   0.8451023304E-04  -0.1641943945E-05   0.4036157978E-01   0.2987691254E-02   0.0000000000E+00  -0.4488669720E-02
   0.2656572840E+00   0.8320045267E-01   0.8559635588E-04  -0.9994045909E-06   0.8559635588E-04  -0.9994045909E-06   0.3375636227E-01   0.5009964687E-02   0.0000000000E+00  -0.4462316414E-02
   0.2447455441E+00   0.6479407579E-01   0.8360240679E-04  -0.6784295638E-06   0.8360240679E-04  -0.6784295638E-06   0.2982910852E-01   0.4947831568E-02   0.0000000000E+00  -0.5065574242E-02
   0.1314805634E+00   0.1908354796E+00   0.3900456860E-04  -0.2065094133E-04   0.3900456860E-04  -0.2065094133E-04   0.6035598371E-01  -0.3494610336E-02   0.0000000000E+00   0.4526713053E-02
   0.2638532039E+00   0.6459915578E-01   0.8651792970E-04  -0.5358109647E-06   0.8651792970E-04  -0.5358109647E-06   0.3078955314E-01   0.5998271455E-02   0.0000000000E+00  -0.3921315518E-02
   0.1692921736E+00   0.1765487134E+00   0.5228780011E-04  -0.1330217445E-04   0.5228780011E-04  -0.1330217445E-04   0.5665646215E-01  -0.3495277558E-02   0.0000000000E+00  -0.1244184891E-02
   0.7721623471E-01   0.1417703592E+00   0.2858913054E-04  -0.2605629818E-04   0.2858913054E-04  -0.2605629818E-04   0.6880140045E-01  -0.1644598039E-02   0.0000000000E+00   0.5459313511E-02
   0.9747163447E-01   0.7629355266E-01   0.5650743618E-04  -0.1277754591E-04   0.5650743618E-04  -0.1277754591E-04   0.4097290720E-01  -0.1182445517E-01   0.0000000000E+00  -0.1300809725E-01
   0.6308155288E-01   0.1890069782E+00   0.1830170293E-04  -0.3372440886E-04   0.1830170293E-04  -0.3372440886E-04   0.6202138589E-01   0.1999243111E-02   0.0000000000E+00   0.7769249638E-02
   0.2634979565E+00   0.1854715109E+00   0.7741562347E-04  -0.6879423274E-05   0.7741562347E-04  -0.6879423274E-05   0.5190580433E-01   0.4738056520E-03   0.0000000000E+00  -0.2885104395E-02
   0.8466558608E-01   0.1287927889E+00   0.3393867562E-04  -0.2264043217E-04   0.3393867562E-04  -0.2264043217E-04   0.6987482812E-01  -0.3746742431E-02   0.0000000000E+00  -0.7512315483E-03
   0.2618198646E+00   0.1660829905E+00   0.7840752578E-04  -0.5477483990E-05   0.7840752578E-04  -0.5477483990E-05   0.5111943571E-01   0.2116396336E-03   0.0000000000E+00  -0.3338254732E-02
   0.2817748762E+00   0.1634195735E+00   0.8352372826E-04  -0.4723883737E-05   0.8352372826E-04  -0.4723883737E-05   0.4753907810E-01   0.1694375653E-02   0.0000000000E+00  -0.3063508159E-02
   0.2674374901E+00   0.1199203432E+00   0.8324294337E-04  -0.2466015339E-05   0.8324294337E-04  -0.2466015339E-05   0.4036157978E-01   0.2987691254E-02   0.0000000000E+00  -0.4488669720E-02
   0.1871052077E+00   0.1919893936E+00   0.5550099862E-04  -0.1276032854E-04   0.5550099862E-04  -0.1276032854E-04   0.5722922435E-01  -0.1849212388E-02   0.0000000000E+00  -0.1393779158E-02
   0.2564289450E+00   0.1496233916E+00   0.7841501871E-04  -0.4506713700E-05   0.7841501871E-04  -0.4506713700E-05   0.4668483921E-01   0.7751590456E-03   0.0000000000E+00  -0.4307996095E-02
   0.2058688390E+00   0.1908869640E+00   0.6104387674E-04  -0.1080850412E-04   0.6104387674E-04  -0.1080850412E-04   0.5722922435E-01  -0.1849212388E-02   0.0000000000E+00  -0.1393779158E-02
   0.1127749744E+00   0.1895937957E+00   0.3342355479E-04  -0.2400002519E-04   0.3342355479E-04  -0.2400002519E-04   0.6088554502E-01  -0.2869246301E-02   0.0000000000E+00   0.6273587917E-02
   0.1861425294E+00   0.1634611426E+00   0.5887793760E-04  -0.1003319591E-04   0.5887793760E-04  -0.1003319591E-04   0.5348091622E-01  -0.4072145406E-02   0.0000000000E+00  -0.3353791699E-02
   0.2045230816E+00   0.1747831830E+00   0.6251367277E-04  -0.9433504649E-05   0.6251367277E-04  -0.9433504649E-05   0.5541132125E-01  -0.2562304350E-02   0.0000000000E+00  -0.2202421394E-02
   0.2400450425E+00   0.1536340233E+00   0.7409475136E-04  -0.5420112288E-05   0.7409475136E-04  -0.5420112288E-05   0.5037857304E-01  -0.2115930036E-03   0.0000000000E+00  -0.3748217596E-02
   0.9096607587E-01   0.1505106503E+00   0.3179918315E-04  -0.2396284912E-04   0.3179918315E-04  -0.2396284912E-04   0.6571910564E-01  -0.6411967929E-02   0.0000000000E+00   0.2963922741E-02
   0.1514450556E+00   0.1752469630E+00   0.4718367067E-04  -0.1563613389E-04   0.4718367067E-04  -0.1563613389E-04   0.5933721747E-01  -0.5160821973E-02   0.0000000000E+00   0.1553629805E-02
   0.1637074214E+00   0.4813541336E-01   0.7477647041E-04  -0.1535971664E-05   0.7477647041E-04  -0.1535971664E-05   0.2494431692E-01  -0.4162858961E-02   0.0000000000E+00  -0.1147822366E-01
   0.1349879208E+00   0.5881454171E-01   0.6890514127E-04  -0.4123772494E-05   0.6890514127E-04  -0.4123772494E-05   0.2814463680E-01  -0.9697301066E-02   0.0000000000E+00  -0.1355711880E-01
   0.1883106606E+00   0.6978420352E-01   0.7442803793E-04  -0.1853367431E-05   0.7442803793E-04  -0.1853367431E-05   0.3419037260E-01  -0.1966913358E-02   0.0000000000E+00  -0.9656746060E-02
   0.2069193577E+00   0.6707270801E-01   0.7767270983E-04  -0.1259695518E-05   0.7767270983E-04  -0.1259695518E-05   0.3317646789E-01   0.4455924336E-03   0.0000000000E+00  -0.8334550010E-02
   0.2292887549E+00   0.8417661601E-01   0.7928646308E-04  -0.1542645019E-05   0.7928646308E-04  -0.1542645019E-05   0.3305200892E-01   0.2405212742E-02   0.0000000000E+00  -0.6944209818E-02
   0.2167788903E+00   0.1045070037E+00   0.7449713135E-04  -0.2959502055E-05   0.7449713135E-04  -0.2959502055E-05   0.3806866361E-01  -0.3076219117E-03   0.0000000000E+00  -0.7761023642E-02
   0.8637762593E-01   0.9165764626E-01   0.4702786708E-04  -0.1746865694E-04   0.4702786708E-04  -0.1746865694E-04   0.6089886907E-01  -0.4603474046E-02   0.0000000000E+00  -0.1096611655E-01
   0.1593753384E+00   0.6189703328E-01   0.7154933601E-04  -0.2549761279E-05   0.7154933601E-04  -0.2549761279E-05   0.2494431692E-01  -0.4162858961E-02   0.0000000000E+00  -0.1147822366E-01
   0.1230790873E+00   0.7126782686E-01   0.6325338038E-04  -0.6872506811E-05   0.6325338038E-04  -0.6872506811E-05   0.3746265257E-01  -0.1245320897E-01   0.0000000000E+00  -0.1344025945E-01
   0.7623051864E-01   0.1055572694E+00   0.3807440774E-04  -0.2188647308E-04   0.3807440774E-04  -0.2188647308E-04   0.6554972918E-01  -0.6367995145E-02   0.0000000000E+00  -0.5448403051E-02
   0.9403863957E-01   0.1159924937E+00   0.4055658730E-04  -0.1863113105E-04   0.4055658730E-04  -0.1863113105E-04   0.6554972918E-01  -0.6367995145E-02   0.0000000000E+00  -0.5448403051E-02
   0.2233771191E+00   0.1720592712E+00   0.6793241127E-04  -0.7798763758E-05   0.6793241127E-04  -0.7798763758E-05   0.5168288165E-01  -0.1336205298E-02   0.0000000000E+00  -0.3716011938E-02
   0.2510664749E+00   0.1191163046E+00   0.7991594233E-04  -0.2781821711E-05   0.7991594233E-04  -0.2781821711E-05   0.4055018193E-01   0.1987663297E-02   0.0000000000E+00  -0.5386979867E-02
   0.2083253887E+00   0.1516452187E+00   0.6636533856E-04  -0.7045511294E-05   0.6636533856E-04  -0.7045511294E-05   0.4941791975E-01  -0.2231633676E-02   0.0000000000E+00  -0.4862133035E-02
   0.9295267774E-01   0.1865645901E+00   0.2766202053E-04  -0.2763443713E-04   0.2766202053E-04  -0.2763443713E-04   0.6163232526E-01  -0.1277425335E-02   0.0000000000E+00   0.7544360184E-02
   0.1867746839E+00   0.1770450467E+00   0.5726246770E-04  -0.1132525336E-04   0.5726246770E-04  -0.1132525336E-04   0.5541132125E-01  -0.2562304350E-02   0.0000000000E+00  -0.2202421394E-02
   0.2426175470E+00   0.1701140128E+00   0.7317910309E-04  -0.6564712554E-05   0.7317910309E-04  -0.6564712554E-05   0.5238610890E-01  -0.6603822127E-03   0.0000000000E+00  -0.3342692764E-02
   0.1334900979E+00   0.1744450444E+00   0.4183557696E-04  -0.1845703802E-04   0.4183557696E-04  -0.1845703802E-04   0.6081125393E-01  -0.5221040236E-02   0.0000000000E+00   0.3434911969E-02
   0.1960136824E+00   0.8950340810E-01   0.7260284880E-04  -0.2772235441E-05   0.7260284880E-04  -0.2772235441E-05   0.3419037260E-01  -0.1966913358E-02   0.0000000000E+00  -0.9656746060E-02
   0.1501757764E+00   0.1212686216E+00   0.5610120483E-04  -0.9339968419E-05   0.5610120483E-04  -0.9339968419E-05   0.5352810256E-01  -0.8990730136E-02   0.0000000000E+00  -0.5465800849E-02
   0.1160706906E+00   0.1738054248E+00   0.3649803782E-04  -0.2158720198E-04   0.3649803782E-04  -0.2158720198E-04   0.6081125393E-01  -0.5221040236E-02   0.0000000000E+00   0.3434911969E-02
   0.1532606670E+00   0.1583295312E+00   0.5023389970E-04  -0.1342601622E-04   0.5023389970E-04  -0.1342601622E-04   0.5821556268E-01  -0.6888851736E-02   0.0000000000E+00  -0.5521261810E-03
   0.1176498814E+00   0.1590825397E+00   0.3916334623E-04  -0.1948677646E-04   0.3916334623E-04  -0.1948677646E-04   0.6091296967E-01  -0.7094429473E-02   0.0000000000E+00   0.1630377093E-02
   0.1445150117E+00   0.1344000242E+00   0.5184322146E-04  -0.1173601345E-04   0.5184322146E-04  -0.1173601345E-04   0.5707473883E-01  -0.8534883536E-02   0.0000000000E+00  -0.2673101325E-02
   0.2659591029E+00   0.1379509143E+00   0.8155242546E-04  -0.3491354188E-05   0.8155242546E-04  -0.3491354188E-05   0.4694226606E-01   0.1263159411E-02   0.0000000000E+00  -0.3813681135E-02
   0.1817389900E+00   0.9468452016E-01   0.6893013696E-04  -0.3828821140E-05   0.6893013696E-04  -0.3828821140E-05   0.3672130233E-01  -0.4699284045E-02   0.0000000000E+00  -0.1058649682E-01
   0.1481986878E+00   0.9104178410E-01   0.6262817447E-04  -0.6012938037E-05   0.6262817447E-04  -0.6012938037E-05   0.4238880923E-01  -0.8770471240E-02   0.0000000000E+00  -0.1090040971E-01
   0.1191899942E+00   0.1241252571E+00   0.4647035414E-04  -0.1446694293E-04   0.4647035414E-04  -0.1446694293E-04   0.6022499874E-01  -0.1049310970E-01   0.0000000000E+00  -0.3797678382E-02
   0.2120465484E+00   0.8614521712E-01   0.7602382925E-04  -0.2038429535E-05   0.7602382925E-04  -0.2038429535E-05   0.3317646789E-01   0.4455924336E-03   0.0000000000E+00  -0.8334550010E-02
   0.2375741037E+00   0.1372059940E+00   0.7517045817E-04  -0.4340889309E-05   0.7517045817E-04  -0.4340889309E-05   0.4569373200E-01   0.5527817908E-03   0.0000000000E+00  -0.4808741562E-02
   0.2063648952E+00   0.1242843301E+00   0.6954859570E-04  -0.4853199136E-05   0.6954859570E-04  -0.4853199136E-05   0.4701093025E-01  -0.2400021118E-02   0.0000000000E+00  -0.5898623776E-02
   0.1112850435E+00   0.1477452092E+00   0.3902038200E-04  -0.1926792095E-04   0.3902038200E-04  -0.1926792095E-04   0.6177227695E-01  -0.7641629853E-02   0.0000000000E+00   0.1632718662E-02
   0.2520077698E+00   0.1354106067E+00   0.7863266111E-04  -0.3719908726E-05   0.7863266111E-04  -0.3719908726E-05   0.4386917030E-01   0.1264219264E-02   0.0000000000E+00  -0.4874653136E-02
   0.1041155407E+00   0.1576250029E+00   0.3502172596E-04  -0.2201917737E-04   0.3502172596E-04  -0.2201917737E-04   0.6264399218E-01  -0.6217464184E-02   0.0000000000E+00   0.3635916815E-02
   0.2229296031E+00   0.1385283746E+00   0.7159179172E-04  -0.5091973156E-05   0.7159179172E-04  -0.5091973156E-05   0.4873703007E-01  -0.1194298449E-02   0.0000000000E+00  -0.4725690856E-02
   0.1708082710E+00   0.1612466976E+00   0.5488135906E-04  -0.1147581341E-04   0.5488135906E-04  -0.1147581341E-04   0.5486346617E-01  -0.4317112267E-02   0.0000000000E+00  -0.2530681110E-02
   0.1747602338E+00   0.1458301282E+00   0.5833050481E-04  -0.9372758251E-05   0.5833050481E-04  -0.9372758251E-05   0.5370023006E-01  -0.6322792997E-02   0.0000000000E+00  -0.3914912294E-02
   0.1546400075E+00   0.1085603441E+00   0.6001035229E-04  -0.7321323537E-05   0.6001035229E-04  -0.7321323537E-05   0.4702924417E-01  -0.7921143836E-02   0.0000000000E+00  -0.8538547499E-02
   0.1778640074E+00   0.1298349433E+00   0.6176868986E-04  -0.7391597549E-05   0.6176868986E-04  -0.7391597549E-05   0.4756395597E-01  -0.5717542108E-02   0.0000000000E+00  -0.7147656672E-02
   0.1124908593E+00   0.8587936958E-01   0.5599153413E-04  -0.1045459861E-04   0.5599153413E-04  -0.1045459861E-04   0.4958823090E-01  -0.1187410843E-01   0.0000000000E+00  -0.1107646524E-01
   0.1888306551E+00   0.1115029641E+00   0.6750953057E-04  -0.4822209051E-05   0.6750953057E-04  -0.4822209051E-05   0.4271248199E-01  -0.3241098522E-02   0.0000000000E+00  -0.8011756485E-02
   0.2021012247E+00   0.1076165039E+00   0.7102510501E-04  -0.3781769804E-05   0.7102510501E-04  -0.3781769804E-05   0.4376011649E-01  -0.2436598567E-02   0.0000000000E+00  -0.7170896865E-02
   0.2204909442E+00   0.1218972870E+00   0.7305699034E-04  -0.3979012255E-05   0.7305699034E-04  -0.3979012255E-05   0.4464551367E-01  -0.1648222435E-02   0.0000000000E+00  -0.6460910922E-02
   0.9857429938E-01   0.1386001203E+00   0.3655614070E-04  -0.2072270405E-04   0.3655614070E-04  -0.2072270405E-04   0.6387509338E-01  -0.7704475880E-02   0.0000000000E+00   0.1695575887E-02
   0.2353519418E+00   0.1201079055E+00   0.7649827927E-04  -0.3295256590E-05   0.7649827927E-04  -0.3295256590E-05   0.4248497281E-01   0.1060128959E-02   0.0000000000E+00  -0.5503873961E-02
   0.1980503599E+00   0.1422462687E+00   0.6499819808E-04  -0.6942541395E-05   0.6499819808E-04  -0.6942541395E-05   0.5100262375E-01  -0.3850653809E-02   0.0000000000E+00  -0.4697783320E-02
   0.1035149822E+00   0.1015463002E+00   0.4811692395E-04  -0.1442249676E-04   0.4811692395E-04  -0.1442249676E-04   0.5516814122E-01  -0.9322789207E-02   0.0000000000E+00  -0.1013961610E-01
   0.1275149412E+00   0.9479300267E-01   0.5675746352E-04  -0.9031241284E-05   0.5675746352E-04  -0.9031241284E-05   0.5035763530E-01  -0.1207015593E-01   0.0000000000E+00  -0.9703748519E-02
   0.1579087213E+00   0.1417808045E+00   0.5432151187E-04  -0.1084998967E-04   0.5432151187E-04  -0.1084998967E-04   0.5370023006E-01  -0.6322792997E-02   0.0000000000E+00  -0.3914912294E-02
   0.1712253685E+00   0.1026536063E+00   0.6516423814E-04  -0.5218950371E-05   0.6516423814E-04  -0.5218950371E-05   0.4095390268E-01  -0.5512655001E-02   0.0000000000E+00  -0.9835177806E-02
   0.1598213216E+00   0.9629951304E-01   0.6395628979E-04  -0.5499177674E-05   0.6395628979E-04  -0.5499177674E-05   0.3932726687E-01  -0.7192568515E-02   0.0000000000E+00  -0.1107859765E-01
   0.1662818008E+00   0.1136189197E+00   0.6182889115E-04  -0.6741153853E-05   0.6182889115E-04  -0.6741153853E-05   0.4879414687E-01  -0.7371560209E-02   0.0000000000E+00  -0.7352360988E-02
   0.1633621426E+00   0.1268214255E+00   0.5853231165E-04  -0.8483122510E-05   0.5853231165E-04  -0.8483122510E-05   0.4879414687E-01  -0.7371560209E-02   0.0000000000E+00  -0.7352360988E-02
   0.1366663264E+00   0.1149763517E+00   0.5380206527E-04  -0.1033628116E-04   0.5380206527E-04  -0.1033628116E-04   0.5460713755E-01  -0.1046659192E-01   0.0000000000E+00  -0.5912233754E-02
   0.1330100626E+00   0.1410574367E+00   0.4712904748E-04  -0.1437153875E-04   0.4712904748E-04  -0.1437153875E-04   0.5773284246E-01  -0.9574017105E-02   0.0000000000E+00  -0.3068864140E-02
   0.1331365353E+00   0.1276411190E+00   0.4989215886E-04  -0.1256177419E-04   0.4989215886E-04  -0.1256177419E-04   0.5773284246E-01  -0.9574017105E-02   0.0000000000E+00  -0.3068864140E-02
   0.1208614604E+00   0.1092812396E+00   0.5079317665E-04  -0.1207672126E-04   0.5079317665E-04  -0.1207672126E-04   0.5312165401E-01  -0.1125815542E-01   0.0000000000E+00  -0.7627059190E-02
   0.1364429591E+00   0.8186941001E-01   0.6257081608E-04  -0.6271657695E-05   0.6257081608E-04  -0.6271657695E-05   0.3555769087E-01  -0.1189716333E-01   0.0000000000E+00  -0.1357723610E-01
   0.1417059320E+00   0.1023934388E+00   0.5823451714E-04  -0.8057938354E-05   0.5823451714E-04  -0.8057938354E-05   0.4723957265E-01  -0.9578576216E-02   0.0000000000E+00  -0.9344257337E-02
   0.1581807349E+00   0.8359899803E-01   0.6649221212E-04  -0.4389020131E-05   0.6649221212E-04  -0.4389020131E-05   0.3932726687E-01  -0.7192568515E-02   0.0000000000E+00  -0.1107859765E-01
   0.1771941356E+00   0.1148070744E+00   0.6423994036E-04  -0.5941176202E-05   0.6423994036E-04  -0.5941176202E-05   0.4690040532E-01  -0.6442484467E-02   0.0000000000E+00  -0.7877102530E-02
   0.1071233012E+00   0.1277344253E+00   0.4178239453E-04  -0.1736660267E-04   0.4178239453E-04  -0.1736660267E-04   0.6389199595E-01  -0.8773511637E-02   0.0000000000E+00  -0.3176294685E-03
   0.1182946825E+00   0.1375854863E+00   0.4322348921E-04  -0.1651824005E-04   0.4322348921E-04  -0.1651824005E-04   0.6174680476E-01  -0.8471559631E-02   0.0000000000E+00   0.4184454892E-03
   0.1924625177E+00   0.1280975118E+00   0.6569109078E-04  -0.6057343547E-05   0.6569109078E-04  -0.6057343547E-05   0.4872477316E-01  -0.4761158543E-02   0.0000000000E+00  -0.6173689117E-02
   0.2095654229E+00   0.1388885034E+00   0.6832505444E-04  -0.5865920099E-05   0.6832505444E-04  -0.5865920099E-05   0.4941791975E-01  -0.2231633676E-02   0.0000000000E+00  -0.4862133035E-02
   0.1994440748E+00   0.1610358118E+00   0.6283103013E-04  -0.8578123503E-05   0.6283103013E-04  -0.8578123503E-05   0.5234923537E-01  -0.3344854136E-02   0.0000000000E+00  -0.3813087825E-02
   0.1892800193E+00   0.1513962096E+00   0.6141216391E-04  -0.8535428891E-05   0.6141216391E-04  -0.8535428891E-05   0.5348091622E-01  -0.4072145406E-02   0.0000000000E+00  -0.3353791699E-02
           1           5         812           8
           5           2           6         812
         812           6           3           7
           8         812           7           4
           9          13         813          16
          13          10          14         813
         813          14          11          15
          16         813          15          12
          17          21         814          24
          21          18          22         814
         814          22          19          23
          24         814          23          20
          25          29         815          32
          29          26          30         815
         815          30          27          31
          32         815          31          28
          33          37         816          40
          37          34          38         816
         816          38          35          39
          40         816          39          36
          41          45         817          48
          45          42          46         817
         817          46          43          47
          48         817          47          44
          49          53         818          56
          53          50          54         818
         818          54          51          55
          56         818          55          52
          57          61         819          64
          61          58          62         819
         819          62          59          63
          64         819          63          60
          65          67         820          69
          67          66          68         820
         820          68           4           7
          69         820           7           3
           2           5         821          74
           5           1          72         821
         821          72          70          73
          74         821          73          71
          75          79         822          82
          79          76          80         822
         822          80          77          81
          82         822          81          78
          83          85         823          87
          85          84          86         823
         823          86          71          73
          87         823          73          70
          88          91         824          94
          91          83          92         824
         824          92          89          93
          94         824          93          90
          95          98         825         101
          98          17          99         825
         825          99          96         100
         101         825         100          97
          83          87         826          92
          87          70         102         826
         826         102          77         103
          92         826         103          89
         104         108         827         111
         108         105         109         827
         827         109         106         110
         111         827         110         107
         107         110         828         116
         110         106         114         828
         828         114         112         115
         116         828         115         113
         117         121         829         124
         121         118         122         829
         829         122         119         123
         124         829         123         120
         118         127         830         122
         127         125         128         830
         830         128         126         129
         122         830         129         119
         130         134         831         137
         134         131         135         831
         831         135         132         136
         137         831         136         133
         138         142         832         145
         142         139         143         832
         832         143         140         144
         145         832         144         141
         146         150         833         153
         150         147         151         833
         833         151         148         152
         153         833         152         149
         154         156         834         158
         156         155         157         834
         834         157          49          56
         158         834          56          52
          51         161         835          55
         161         159         162         835
         835         162         160         163
          55         835         163          52
         164         166         836         168
         166         165         167         836
         836         167          44          47
         168         836          47          43
         169         173         837         176
         173         170         174         837
         837         174         171         175
         176         837         175         172
         177         181         838         184
         181         178         182         838
         838         182         179         183
         184         838         183         180
         185         189         839         192
         189         186         190         839
         839         190         187         191
         192         839         191         188
         188         191         840         196
         191         187         194         840
         840         194         131         195
         196         840         195         193
         130         198         841         134
         198         197         199         841
         841         199         193         195
         134         841         195         131
         197         198         842         203
         198         130         201         842
         842         201         125         202
         203         842         202         200
         118         205         843         127
         205         204         206         843
         843         206         200         202
         127         843         202         125
         207         208         844         210
         208         117         209         844
         844         209         113         115
         210         844         115         112
          95         212         845          98
         212         211         213         845
         845         213          18          21
          98         845          21          17
         214         218         846         221
         218         215         219         846
         846         219         216         220
         221         846         220         217
          20         223         847         225
         223         222         224         847
         847         224         215         218
         225         847         218         214
         214         221         848         229
         221         217         227         848
         848         227         226         228
         229         848         228          96
         230         232         849         234
         232         231         233         849
         849         233          59          62
         234         849          62          58
         235         237         850         239
         237         230         234         850
         850         234          58         238
         239         850         238         236
         154         243         851         246
         243         240         244         851
         851         244         241         245
         246         851         245         242
         247         251         852         254
         251         248         252         852
         852         252         249         253
         254         852         253         250
          60          63         853         259
          63          59         257         853
         853         257         255         258
         259         853         258         256
         260         264         854         267
         264         261         265         854
         854         265         262         266
         267         854         266         263
         268         272         855         275
         272         269         273         855
         855         273         270         274
         275         855         274         271
         269         276         856         273
         276         177         184         856
         856         184         180         277
         273         856         277         270
         170         280         857         174
         280         278         281         857
         857         281         279         282
         174         857         282         171
         283         287         858         290
         287         284         288         858
         858         288         285         289
         290         858         289         286
         291         292         859         293
         292         222         223         859
         859         223          20          23
         293         859          23          19
         294         295         860         297
         295          88         296         860
         860         296         222         292
         297         860         292         291
          66         299         861          68
         299         286         300         861
         861         300         298         301
          68         861         301           4
          84          85         862         302
          85          83          91         862
         862          91          88         295
         302         862         295         294
          70          72         863         102
          72           1         303         863
         863         303          78          81
         102         863          81          77
         222         296         864         224
         296          88          94         864
         864          94          90         304
         224         864         304         215
         305         307         865         309
         307         306         308         865
         865         308         242         245
         309         865         245         241
         310         312         866         314
         312         311         313         866
         866         313          25          32
         314         866          32          28
         315         317         867         319
         317         316         318         867
         867         318         138         145
         319         867         145         141
         204         205         868         320
         205         118         121         868
         868         121         117         208
         320         868         208         207
         120         321         869         124
         321         315         322         869
         869         322         113         209
         124         869         209         117
         104         111         870         324
         111         107         323         870
         870         323         141         144
         324         870         144         140
         325         329         871         332
         329         326         330         871
         871         330         327         331
         332         871         331         328
         326         329         872         334
         329         325         333         872
         872         333         172         175
         334         872         175         171
         186         189         873         336
         189         185         335         873
         873         335         328         331
         336         873         331         327
         337         341         874         344
         341         338         342         874
         874         342         339         343
         344         874         343         340
         345         347         875         349
         347          50          53         875
         875          53          49         348
         349         875         348         346
         350         353         876         356
         353         351         354         876
         876         354         285         355
         356         876         355         352
           9          16         877         360
          16          12         358         877
         877         358         357         359
         360         877         359         226
         298         300         878         361
         300         286         289         878
         878         289         285         354
         361         878         354         351
         362         364         879         366
         364         217         220         879
         879         220         216         365
         366         879         365         363
          97         100         880         367
         100          96         228         880
         880         228         226         359
         367         880         359         357
         125         201         881         128
         201         130         137         881
         881         137         133         368
         128         881         368         126
         236         370         882         373
         370         369         371         882
         882         371         250         372
         373         882         372         262
         131         194         883         135
         194         187         375         883
         883         375         374         376
         135         883         376         132
         186         378         884         190
         378         377         379         884
         884         379         374         375
         190         884         375         187
         271         380         885         275
         380         260         267         885
         885         267         263         381
         275         885         381         268
         139         142         886         383
         142         138         382         886
         886         382         306         307
         383         886         307         305
         338         341         887         385
         341         337         384         887
         887         384         178         181
         385         887         181         177
          17          24         888          99
          24          20         225         888
         888         225         214         229
          99         888         229          96
         231         387         889         233
         387         386         388         889
         889         388         255         257
         233         889         257          59
         389         391         890         393
         391         390         392         890
         890         392         284         287
         393         890         287         283
         263         395         891         381
         395         249         396         891
         891         396         394         397
         381         891         397         268
         261         398         892         265
         398         235         239         892
         892         239         236         373
         265         892         373         262
         399         403         893         406
         403         400         404         893
         893         404         401         405
         406         893         405         402
         177         276         894         385
         276         269         408         894
         894         408         407         409
         385         894         409         338
         410         412         895         414
         412         411         413         895
         895         413         327         330
         414         895         330         326
         410         415         896         412
         415         337         344         896
         896         344         340         416
         412         896         416         411
          10         417         897          14
         417         255         388         897
         897         388         386         418
          14         897         418          11
          76          79         898         423
          79          75         421         898
         898         421         419         422
         423         898         422         420
          78         424         899          82
         424         298         361         899
         899         361         351         425
          82         899         425          75
         390         391         900         427
         391         389         426         900
         900         426          36          39
         427         900          39          35
         165         430         901         167
         430         428         431         901
         901         431         429         432
         167         901         432          44
          34          37         902         434
          37          33         433         902
         902         433          41          48
         434         902          48          44
         435         437         903         439
         437         436         438         903
         903         438         165         166
         439         903         166         164
         298         424         904         301
         424          78         303         904
         904         303           1           8
         301         904           8           4
          52         163         905         158
         163         160         440         905
         905         440         240         243
         158         905         243         154
         441         445         906         448
         445         442         446         906
         906         446         443         447
         448         906         447         444
         442         450         907         452
         450         449         451         907
         907         451         119         129
         452         907         129         126
         315         319         908         322
         319         141         323         908
         908         323         107         116
         322         908         116         113
         126         368         909         452
         368         133         453         909
         909         453         443         446
         452         909         446         442
         400         403         910         456
         403         399         454         910
         910         454         369         455
         456         910         455          57
         159         161         911         458
         161          51         457         911
         911         457         436         437
         458         911         437         435
         459         460         912         461
         460         436         457         912
         912         457          51          54
         461         912          54          50
         133         136         913         453
         136         132         463         913
         913         463         462         464
         453         913         464         443
         215         304         914         219
         304          90         466         914
         914         466         465         467
         219         914         467         216
         468         469         915         470
         469         465         466         915
         915         466          90          93
         470         915          93          89
          76         471         916          80
         471         468         470         916
         916         470          89         103
          80         916         103          77
         120         123         917         474
         123         119         451         917
         917         451         449         473
         474         917         473         472
         475         476         918         477
         476         462         463         918
         918         463         132         376
         477         918         376         374
         306         480         919         308
         480         478         481         919
         919         481         479         482
         308         919         482         242
         483         485         920         488
         485         155         486         920
         920         486         479         487
         488         920         487         484
         316         489         921         318
         489         478         480         921
         921         480         306         382
         318         921         382         138
         186         336         922         378
         336         327         413         922
         922         413         411         490
         378         922         490         377
         407         408         923         491
         408         269         272         923
         923         272         268         397
         491         923         397         394
         492         494         924         496
         494         493         495         924
         924         495         407         491
         496         924         491         394
         369         370         925         455
         370         236         238         925
         925         238          58          61
         455         925          61          57
         497         501         926         504
         501         498         502         926
         926         502         499         503
         504         926         503         500
         262         372         927         266
         372         250         253         927
         927         253         249         395
         266         927         395         263
         279         505         928         506
         505         178         384         928
         928         384         337         415
         506         928         415         410
         278         507         929         281
         507         179         182         929
         929         182         178         505
         281         929         505         279
          10         509         930         417
         509         508         510         930
         930         510         256         258
         417         930         258         255
         508         509         931         512
         509          10          13         931
         931          13           9         511
         512         931         511         362
         513         515         932         517
         515          60         259         932
         932         259         256         516
         517         932         516         514
         248         518         933         252
         518         492         496         933
         933         496         394         396
         252         933         396         249
         519         520         934         523
         520         346         521         934
         934         521         483         522
         523         934         522         310
         420         422         935         528
         422         419         526         935
         935         526         524         527
         528         935         527         525
         529         530         936         532
         530         401         404         936
         936         404         400         531
         532         936         531         513
         533         535         937         537
         535         534         536         937
         937         536         340         343
         537         937         343         339
         538         540         938         542
         540         539         541         938
         938         541         525         527
         542         938         527         524
         479         486         939         482
         486         155         156         939
         939         156         154         246
         482         939         246         242
         442         445         940         450
         445         441         544         940
         940         544         543         545
         450         940         545         449
         546         548         941         550
         548         547         549         941
         941         549          28          31
         550         941          31          27
         551         552         942         554
         552         478         489         942
         942         489         316         553
         554         942         553         472
         472         553         943         474
         553         316         317         943
         943         317         315         321
         474         943         321         120
         449         545         944         473
         545         543         555         944
         944         555         551         554
         473         944         554         472
         556         558         945         560
         558         557         559         945
         945         559         429         431
         560         945         431         428
         165         438         946         430
         438         436         460         946
         946         460         459         561
         430         946         561         428
         279         506         947         282
         506         410         414         947
         947         414         326         334
         282         947         334         171
          75         425         948         421
         425         351         353         948
         948         353         350         562
         421         948         562         419
         563         567         949         570
         567         564         568         949
         949         568         565         569
         570         949         569         566
         571         572         950         574
         572         465         469         950
         950         469         468         573
         574         950         573         525
         420         528         951         423
         528         525         573         951
         951         573         468         471
         423         951         471          76
         575         577         952         579
         577         576         578         952
         952         578         539         540
         579         952         540         538
         248         582         953         518
         582         580         583         953
         953         583         581         584
         518         953         584         492
         377         490         954         585
         490         411         416         954
         954         416         340         536
         585         954         536         534
         443         464         955         447
         464         462         587         955
         955         587         586         588
         447         955         588         444
         586         587         956         591
         587         462         476         956
         956         476         475         590
         591         956         590         589
         478         552         957         481
         552         551         592         957
         957         592         484         487
         481         957         487         479
         593         594         958         595
         594         493         494         958
         958         494         492         584
         595         958         584         581
         217         364         959         227
         364         362         511         959
         959         511           9         360
         227         959         360         226
         475         477         960         596
         477         374         379         960
         960         379         377         585
         596         960         585         534
         250         371         961         254
         371         369         454         961
         961         454         399         597
         254         961         597         247
          50         347         962         461
         347         345         598         962
         962         598         498         599
         461         962         599         459
          57          64         963         456
          64          60         515         963
         963         515         513         531
         456         963         531         400
         600         602         964         604
         602         601         603         964
         964         603          35          38
         604         964          38          34
         338         409         965         342
         409         407         495         965
         965         495         493         605
         342         965         605         339
         557         608         966         611
         608         497         609         966
         966         609         606         610
         611         966         610         607
         514         516         967         614
         516         256         510         967
         967         510         508         613
         614         967         613         612
         539         615         968         541
         615         363         616         968
         968         616         571         574
         541         968         574         525
         362         366         969         512
         366         363         617         969
         969         617         612         613
         512         969         613         508
         429         618         970         432
         618         600         604         970
         970         604          34         434
         432         970         434          44
         346         348         971         521
         348          49         157         971
         971         157         155         485
         521         971         485         483
          26          29         972         620
          29          25         619         972
         972         619         441         448
         620         972         448         444
         543         544         973         621
         544         441         619         973
         973         619          25         313
         621         973         313         311
         484         622         974         488
         622         311         312         974
         974         312         310         522
         488         974         522         483
         623         624         975         625
         624         529         532         975
         975         532         513         517
         625         975         517         514
         551         555         976         592
         555         543         621         976
         976         621         311         622
         592         976         622         484
         402         405         977         630
         405         401         628         977
         977         628         626         629
         630         977         629         627
         419         562         978         526
         562         350         632         978
         978         632         631         633
         526         978         633         524
         634         635         979         636
         635         390         427         979
         979         427          35         603
         636         979         603         601
         571         616         980         572
         616         363         365         980
         980         365         216         467
         572         980         467         465
         533         537         981         637
         537         339         605         981
         981         605         493         594
         637         981         594         593
         352         639         982         356
         639         638         640         982
         982         640         631         632
         356         982         632         350
         641         642         983         644
         642         589         643         983
         983         643         533         637
         644         983         637         593
         475         596         984         590
         596         534         535         984
         984         535         533         643
         590         984         643         589
         444         588         985         620
         588         586         646         985
         985         646         645         647
         620         985         647          26
         247         597         986         650
         597         399         406         986
         986         406         402         649
         650         986         649         648
         651         653         987         655
         653         589         642         987
         987         642         641         654
         655         987         654         652
         648         656         988         650
         656         580         582         988
         988         582         248         251
         650         988         251         247
         576         657         989         658
         657         623         625         989
         989         625         514         614
         658         989         614         612
         659         662         990         665
         662         660         663         990
         990         663         627         664
         665         990         664         661
         660         666         991         668
         666         146         667         991
         991         667         580         656
         668         991         656         648
         149         152         992         670
         152         148         669         992
         992         669         652         654
         670         992         654         641
         671         672         993         673
         672         538         542         993
         993         542         524         633
         673         993         633         631
         565         674         994         675
         674         626         628         994
         994         628         401         530
         675         994         530         529
         556         560         995         676
         560         428         561         995
         995         561         459         599
         676         995         599         498
         607         677         996         611
         677         600         618         996
         996         618         429         559
         611         996         559         557
         499         502         997         680
         502         498         598         997
         997         598         345         679
         680         997         679         678
         678         679         998         681
         679         345         349         998
         998         349         346         520
         681         998         520         519
         310         314         999         523
         314          28         549         999
         999         549         547         682
         523         999         682         519
         547         548        1000         687
         548         546         685        1000
        1000         685         683         686
         687        1000         686         684
         284         392        1001         690
         392         390         635        1001
        1001         635         634         689
         690        1001         689         688
         498         501        1002         676
         501         497         608        1002
        1002         608         557         558
         676        1002         558         556
         601         602        1003         693
         602         600         677        1003
        1003         677         607         692
         693        1003         692         691
         352         355        1004         694
         355         285         288        1004
        1004         288         284         690
         694        1004         690         688
         688         696        1005         694
         696         695         697        1005
        1005         697         638         639
         694        1005         639         352
         149         698        1006         153
         698         581         583        1006
        1006         583         580         667
         153        1006         667         146
          26         647        1007          30
         647         645         700        1007
        1007         700         699         701
          30        1007         701          27
         147         150        1008         706
         150         146         704        1008
        1008         704         702         705
         706        1008         705         703
         539         578        1009         615
         578         576         658        1009
        1009         658         612         617
         615        1009         617         363
         648         649        1010         668
         649         402         630        1010
        1010         630         627         663
         668        1010         663         660
         149         670        1011         698
         670         641         644        1011
        1011         644         593         595
         698        1011         595         581
         566         569        1012         707
         569         565         675        1012
        1012         675         529         624
         707        1012         624         623
         678         709        1013         680
         709         684         710        1013
        1013         710         708         711
         680        1013         711         499
         712         716        1014         719
         716         713         717        1014
        1014         717         714         718
         719        1014         718         715
         623         657        1015         707
         657         576         577        1015
        1015         577         575         720
         707        1015         720         566
         564         722        1016         568
         722         721         723        1016
        1016         723         626         674
         568        1016         674         565
         566         720        1017         570
         720         575         725        1017
        1017         725         724         726
         570        1017         726         563
         727         728        1018         730
         728         712         719        1018
        1018         719         715         729
         730        1018         729         564
         651         731        1019         653
         731         645         646        1019
        1019         646         586         591
         653        1019         591         589
         499         711        1020         503
         711         708         733        1020
        1020         733         732         734
         503        1020         734         500
         735         738        1021         741
         738         736         739        1021
        1021         739         606         740
         741        1021         740         737
         695         745        1022         748
         745         742         746        1022
        1022         746         743         747
         748        1022         747         744
         519         682        1023         681
         682         547         687        1023
        1023         687         684         709
         681        1023         709         678
         652         669        1024         752
         669         148         750        1024
        1024         750         749         751
         752        1024         751         699
         753         756        1025         759
         756         754         757        1025
        1025         757         683         758
         759        1025         758         755
         724         761        1026         726
         761         671         762        1026
        1026         762         760         763
         726        1026         763         563
         645         731        1027         700
         731         651         655        1027
        1027         655         652         752
         700        1027         752         699
         575         579        1028         725
         579         538         672        1028
        1028         672         671         761
         725        1028         761         724
         147         764        1029         151
         764         755         765        1029
        1029         765         749         750
         151        1029         750         148
         627         629        1030         664
         629         626         723        1030
        1030         723         721         766
         664        1030         766         661
         767         769        1031         771
         769         768         770        1031
        1031         770         661         766
         771        1031         766         721
         714         717        1032         775
         717         713         773        1032
        1032         773         735         774
         775        1032         774         772
         776         778        1033         780
         778         768         769        1033
        1033         769         767         779
         780        1033         779         777
         634         636        1034         783
         636         601         693        1034
        1034         693         691         782
         783        1034         782         781
         754         784        1035         786
         784         776         785        1035
        1035         785         732         733
         786        1035         733         708
         754         786        1036         757
         786         708         710        1036
        1036         710         684         686
         757        1036         686         683
         683         685        1037         758
         685         546         787        1037
        1037         787         749         765
         758        1037         765         755
         671         673        1038         762
         673         631         640        1038
        1038         640         638         788
         762        1038         788         760
         699         751        1039         701
         751         749         787        1039
        1039         787         546         550
         701        1039         550          27
         768         789        1040         791
         789         753         790        1040
        1040         790         703         705
         791        1040         705         702
         634         783        1041         689
         783         781         792        1041
        1041         792         695         696
         689        1041         696         688
         781         782        1042         796
         782         691         794        1042
        1042         794         736         795
         796        1042         795         793
         721         722        1043         771
         722         564         729        1043
        1043         729         715         797
         771        1043         797         767
         732         799        1044         734
         799         798         800        1044
        1044         800         772         801
         734        1044         801         500
         500         801        1045         802
         801         772         774        1045
        1045         774         735         741
         802        1045         741         737
         714         775        1046         804
         775         772         800        1046
        1046         800         798         803
         804        1046         803         777
         777         779        1047         804
         779         767         797        1047
        1047         797         715         718
         804        1047         718         714
         742         805        1048         807
         805         793         806        1048
        1048         806         713         716
         807        1048         716         712
         727         730        1049         809
         730         564         567        1049
        1049         567         563         808
         809        1049         808         743
         743         746        1050         809
         746         742         807        1050
        1050         807         712         728
         809        1050         728         727
         742         745        1051         805
         745         695         792        1051
        1051         792         781         796
         805        1051         796         793
         607         610        1052         692
         610         606         739        1052
        1052         739         736         794
         692        1052         794         691
         713         806        1053         773
         806         793         795        1053
        1053         795         736         738
         773        1053         738         735
         737         740        1054         802
         740         606         609        1054
        1054         609         497         504
         802        1054         504         500
         798         799        1055         803
         799         732         785        1055
        1055         785         776         780
         803        1055         780         777
         638         697        1056         788
         697         695         748        1056
        1056         748         744         810
         788        1056         810         760
         760         810        1057         763
         810         744         747        1057
        1057         747         743         808
         763        1057         808         563
         776         784        1058         778
         784         754         756        1058
        1058         756         753         789
         778        1058         789         768
         703         790        1059         706
         790         753         759        1059
        1059         759         755         764
         706        1059         764         147
         702         704        1060         811
         704         146         666        1060
        1060         666         660         662
         811        1060         662         659
         661         770        1061         665
         770         768         791        1061
        1061         791         702         811
         665        1061         811         659
 VARIABLES = X,Y,DU1,DU2,U1,U2,S11,S22,S33,S12
 ZONE, T="0.3000D+01" F=FEPOINT, I= 1061 J= 1000
   0.1777709599E-01   0.1341269467E+00   0.7359764910E-05  -0.3694976194E-04   0.1471952982E-04  -0.7389952388E-04   0.1298791312E+00   0.2286565212E-01   0.0000000000E+00   0.2303895625E-02
   0.0000000000E+00   0.1332200129E+00   0.0000000000E+00  -0.3777570863E-04   0.0000000000E+00  -0.7555141725E-04   0.1341773790E+00   0.2614707981E-01   0.0000000000E+00   0.2285447462E-03
   0.0000000000E+00   0.1165568431E+00   0.0000000000E+00  -0.3660795950E-04   0.0000000000E+00  -0.7321591899E-04   0.1723985770E+00   0.2496268028E-01   0.0000000000E+00   0.1671344994E-03
   0.1918487573E-01   0.1161845832E+00   0.1024624290E-04  -0.3553493697E-04   0.2049248580E-04  -0.7106987394E-04   0.1617233180E+00   0.2319340429E-01   0.0000000000E+00  -0.7447143394E-02
   0.8888635313E-02   0.1336728520E+00   0.3708991077E-05  -0.3757465114E-04   0.7417982154E-05  -0.7514930228E-04   0.1324802694E+00   0.2507968064E-01   0.0000000000E+00   0.8935484038E-03
   0.0000000000E+00   0.1248881182E+00   0.0000000000E+00  -0.3729394253E-04   0.0000000000E+00  -0.7458788506E-04   0.1492679572E+00   0.2369075512E-01   0.0000000000E+00   0.1398300678E-03
   0.9592641262E-02   0.1163699195E+00   0.5190920534E-05  -0.3633583345E-04   0.1038184107E-04  -0.7267166689E-04   0.1670422122E+00   0.2383891831E-01   0.0000000000E+00  -0.4109227611E-02
   0.1848026468E-01   0.1251555247E+00   0.8562294589E-05  -0.3632376323E-04   0.1712458918E-04  -0.7264752646E-04   0.1432070599E+00   0.2191783173E-01   0.0000000000E+00  -0.2386292888E-02
   0.7805659917E-01   0.2317726930E+00   0.1836665797E-04  -0.3456999271E-04   0.3673331595E-04  -0.6913998541E-04   0.7919863950E-01  -0.5425786977E-04   0.0000000000E+00   0.6397316292E-02
   0.9784918667E-01   0.2319624923E+00   0.2372892436E-04  -0.3092322158E-04   0.4745784872E-04  -0.6184644315E-04   0.8408689392E-01  -0.3243610859E-03   0.0000000000E+00   0.5788225989E-02
   0.9728433909E-01   0.2499024243E+00   0.2070506333E-04  -0.3252522533E-04   0.4141012666E-04  -0.6505045065E-04   0.8232558299E-01   0.1192279982E-03   0.0000000000E+00   0.3296012620E-03
   0.7782467273E-01   0.2498919961E+00   0.1563070863E-04  -0.3600130767E-04   0.3126141726E-04  -0.7200261533E-04   0.7425473719E-01   0.2486422564E-04   0.0000000000E+00   0.3731270772E-03
   0.8795276925E-01   0.2318675333E+00   0.2100781830E-04  -0.3276889885E-04   0.4201563660E-04  -0.6553779770E-04   0.8163383846E-01  -0.2224107868E-03   0.0000000000E+00   0.5980110806E-02
   0.9756704581E-01   0.2409324276E+00   0.2231006950E-04  -0.3173180802E-04   0.4462013900E-04  -0.6346361604E-04   0.8300699721E-01  -0.1398695559E-03   0.0000000000E+00   0.3098848069E-02
   0.8755432033E-01   0.2498971396E+00   0.1810477757E-04  -0.3428679245E-04   0.3620955514E-04  -0.6857358490E-04   0.7830475928E-01   0.4958027569E-04   0.0000000000E+00   0.1781039290E-03
   0.7794094263E-01   0.2408323088E+00   0.1710214485E-04  -0.3529772590E-04   0.3420428970E-04  -0.7059545180E-04   0.7669469207E-01  -0.2548478370E-04   0.0000000000E+00   0.3427305382E-02
   0.1911061661E-01   0.2331957977E+00   0.4142004875E-05  -0.4234376313E-04   0.8284009750E-05  -0.8468752626E-04   0.6585386241E-01   0.7567283965E-03   0.0000000000E+00   0.2472928515E-02
   0.0000000000E+00   0.2332045803E+00   0.0000000000E+00  -0.4291789365E-04   0.0000000000E+00  -0.8583578731E-04   0.6477415612E-01   0.8395380021E-03   0.0000000000E+00   0.5403450658E-04
   0.0000000000E+00   0.2165410199E+00   0.0000000000E+00  -0.4188304632E-04   0.0000000000E+00  -0.8376609265E-04   0.7468811040E-01   0.3729938041E-02   0.0000000000E+00   0.4353908482E-04
   0.1854598636E-01   0.2166506400E+00   0.4563853798E-05  -0.4132432013E-04   0.9127707596E-05  -0.8264864026E-04   0.7528643336E-01   0.3369782890E-02   0.0000000000E+00   0.3787683299E-02
   0.9555282829E-02   0.2331997562E+00   0.2062509789E-05  -0.4277260514E-04   0.4125019577E-05  -0.8554521029E-04   0.6533636215E-01   0.9070651563E-03   0.0000000000E+00   0.1202717240E-02
   0.0000000000E+00   0.2248727895E+00   0.0000000000E+00  -0.4240148902E-04   0.0000000000E+00  -0.8480297804E-04   0.7009977452E-01   0.2403885080E-02   0.0000000000E+00   0.4714525665E-04
   0.9272978869E-02   0.2165954103E+00   0.2277159540E-05  -0.4174355686E-04   0.4554319080E-05  -0.8348711372E-04   0.7501608221E-01   0.3699333426E-02   0.0000000000E+00   0.1878771484E-02
   0.1882837327E-01   0.2249232135E+00   0.4377155925E-05  -0.4183582875E-04   0.8754311849E-05  -0.8367165751E-04   0.7089811312E-01   0.2169465156E-02   0.0000000000E+00   0.3113994150E-02
   0.2574559011E+00   0.9227005180E-01   0.8347168670E-04  -0.1406400188E-05   0.1669433734E-03  -0.2812800376E-05   0.5538545806E-01   0.5207865803E-02   0.0000000000E+00  -0.7753578140E-02
   0.2588480413E+00   0.1102794570E+00   0.8225444304E-04  -0.2157661385E-05   0.1645088861E-03  -0.4315322771E-05   0.6051776630E-01   0.3791655696E-02   0.0000000000E+00  -0.7447700421E-02
   0.2420921509E+00   0.1106690186E+00   0.7887295949E-04  -0.2550134710E-05   0.1577459190E-03  -0.5100269420E-05   0.6110189593E-01   0.2044433016E-02   0.0000000000E+00  -0.8750012380E-02
   0.2396207844E+00   0.9267616888E-01   0.8021613921E-04  -0.1716539788E-05   0.1604322784E-03  -0.3433079576E-05   0.5549920209E-01   0.3305016197E-02   0.0000000000E+00  -0.9399629178E-02
   0.2581519945E+00   0.1012748187E+00   0.8286582278E-04  -0.1760756974E-05   0.1657316456E-03  -0.3521513947E-05   0.5795742989E-01   0.4496182158E-02   0.0000000000E+00  -0.7604973537E-02
   0.2504701226E+00   0.1104742806E+00   0.8057253873E-04  -0.2339454431E-05   0.1611450775E-03  -0.4678908862E-05   0.6082527289E-01   0.2981494945E-02   0.0000000000E+00  -0.8080469801E-02
   0.2408564627E+00   0.1016726572E+00   0.7954056930E-04  -0.2113264344E-05   0.1590811386E-03  -0.4226528688E-05   0.5835643716E-01   0.2684163167E-02   0.0000000000E+00  -0.9077041859E-02
   0.2485383551E+00   0.9247315182E-01   0.8185038190E-04  -0.1548892412E-05   0.1637007638E-03  -0.3097784824E-05   0.5546478390E-01   0.4322518503E-02   0.0000000000E+00  -0.8549278978E-02
   0.9260284777E-01   0.3823475451E-01   0.7163195769E-04  -0.1119602853E-04   0.1432639154E-03  -0.2239205707E-04  -0.8553101776E-02  -0.4256460732E-01   0.0000000000E+00   0.1561073886E-01
   0.1082565229E+00   0.4607735266E-01   0.6988764262E-04  -0.7062945171E-05   0.1397752852E-03  -0.1412589034E-04   0.1267817549E-01  -0.2930107708E-01   0.0000000000E+00  -0.1078123238E-01
   0.9629713850E-01   0.6350624062E-01   0.6201403197E-04  -0.1198469315E-04   0.1240280639E-03  -0.2396938631E-04   0.3245354451E-01  -0.1621768302E-01   0.0000000000E+00  -0.1595717499E-01
   0.8334162190E-01   0.5550695445E-01   0.6488746696E-04  -0.1668975126E-04   0.1297749339E-03  -0.3337950253E-04   0.9722150823E-03  -0.2147651510E-02   0.0000000000E+00  -0.6051567890E-03
   0.1004294287E+00   0.4215717832E-01   0.7067556217E-04  -0.8755191829E-05   0.1413511243E-03  -0.1751038366E-04   0.4986049403E-02  -0.3148261429E-01   0.0000000000E+00  -0.8837076391E-04
   0.1022778162E+00   0.5479202168E-01   0.6628072374E-04  -0.9448173182E-05   0.1325614475E-03  -0.1889634636E-04   0.2145285636E-01  -0.2245231430E-01   0.0000000000E+00  -0.1314421499E-01
   0.8981866536E-01   0.5950770363E-01   0.6321368757E-04  -0.1396788883E-04   0.1264273751E-03  -0.2793577767E-04   0.1815072180E-01  -0.8944485594E-02   0.0000000000E+00  -0.9232570682E-02
   0.8839789307E-01   0.4709779630E-01   0.6858849145E-04  -0.1395936715E-04   0.1371769829E-03  -0.2791873430E-04  -0.5739172065E-02  -0.2196600636E-01   0.0000000000E+00   0.9460856700E-02
   0.9830556354E-01   0.1949223114E-01   0.7567898029E-04  -0.5600419084E-05   0.1513579606E-03  -0.1120083817E-04  -0.5315986682E-02  -0.7242021261E-01   0.0000000000E+00   0.1285483560E-01
   0.1002312136E+00   0.0000000000E+00   0.7707085351E-04   0.0000000000E+00   0.1541417070E-03   0.0000000000E+00  -0.2862482746E-02  -0.8800942531E-01   0.0000000000E+00   0.2549574530E-03
   0.1210673221E+00   0.0000000000E+00   0.7799735966E-04   0.0000000000E+00   0.1559947193E-03   0.0000000000E+00  -0.5767893546E-02  -0.3620540404E-01   0.0000000000E+00  -0.2500892196E-03
   0.1219578856E+00   0.2610421526E-01   0.7567385941E-04  -0.2697814797E-05   0.1513477188E-03  -0.5395629595E-05   0.2451077312E-02  -0.2811259310E-01   0.0000000000E+00  -0.9484113890E-02
   0.9974868121E-01   0.9793223636E-02   0.7673690310E-04  -0.2830347902E-05   0.1534738062E-03  -0.5660695804E-05  -0.4879376204E-02  -0.8288956721E-01   0.0000000000E+00   0.7964691136E-02
   0.1106497719E+00   0.0000000000E+00   0.7770197656E-04   0.0000000000E+00   0.1554039531E-03   0.0000000000E+00  -0.2976941952E-02  -0.5352717294E-01   0.0000000000E+00  -0.4616725974E-03
   0.1215143354E+00   0.1305190717E-01   0.7741146811E-04  -0.1415744244E-05   0.1548229362E-03  -0.2831488487E-05  -0.2603000270E-02  -0.3242785949E-01   0.0000000000E+00  -0.4324686518E-02
   0.1101320129E+00   0.2279917961E-01   0.7577363333E-04  -0.3830629336E-05   0.1515472667E-03  -0.7661258672E-05   0.7727084702E-04  -0.4465032886E-01   0.0000000000E+00  -0.4184819897E-04
   0.2107879760E+00   0.3763213732E-01   0.8127901609E-04  -0.3651602496E-06   0.1625580322E-03  -0.7303204993E-06   0.3588629564E-01   0.5539811418E-02   0.0000000000E+00  -0.8602820502E-02
   0.1906949270E+00   0.3838078073E-01   0.7900565755E-04  -0.5732244971E-06   0.1580113151E-03  -0.1146448994E-05   0.3223962851E-01   0.2216675804E-02   0.0000000000E+00  -0.1098147001E-01
   0.1869489891E+00   0.1901223246E-01   0.8027902417E-04  -0.2293806326E-06   0.1605580483E-03  -0.4587612651E-06   0.2557036291E-01   0.3404247014E-02   0.0000000000E+00  -0.6287281314E-02
   0.2074786658E+00   0.1873762328E-01   0.8212794506E-04  -0.1335403423E-06   0.1642558901E-03  -0.2670806846E-06   0.3104434535E-01   0.6644264643E-02   0.0000000000E+00  -0.4866541576E-02
   0.2007413923E+00   0.3800650261E-01   0.8012243390E-04  -0.4546623824E-06   0.1602448678E-03  -0.9093247648E-06   0.3410309250E-01   0.3973199052E-02   0.0000000000E+00  -0.9673193778E-02
   0.1888222636E+00   0.2869657260E-01   0.7974418929E-04  -0.3792984568E-06   0.1594883786E-03  -0.7585969137E-06   0.2853245499E-01   0.2708246241E-02   0.0000000000E+00  -0.8641994106E-02
   0.1972137189E+00   0.1887495168E-01   0.8116497154E-04  -0.1735055791E-06   0.1623299431E-03  -0.3470111583E-06   0.2836644524E-01   0.5145400941E-02   0.0000000000E+00  -0.5498469969E-02
   0.2091335468E+00   0.2818493492E-01   0.8178126921E-04  -0.2311590708E-06   0.1635625384E-03  -0.4623181416E-06   0.3316260639E-01   0.6024902954E-02   0.0000000000E+00  -0.6740345770E-02
   0.1575543530E+00   0.2159005746E+00   0.4366866765E-04  -0.1895781257E-04   0.8733733529E-04  -0.3791562513E-04   0.9099523092E-01  -0.1887600633E-02   0.0000000000E+00   0.2484125243E-02
   0.1565762209E+00   0.2325433907E+00   0.4118329481E-04  -0.2070375374E-04   0.8236658963E-04  -0.4140750748E-04   0.9347711647E-01  -0.4443889007E-03   0.0000000000E+00   0.1799303100E-02
   0.1370848737E+00   0.2325586512E+00   0.3516757350E-04  -0.2382758464E-04   0.7033514700E-04  -0.4765516928E-04   0.9148306584E-01  -0.4780683802E-03   0.0000000000E+00   0.3159216616E-02
   0.1383286461E+00   0.2157467215E+00   0.3784536415E-04  -0.2201715420E-04   0.7569072830E-04  -0.4403430840E-04   0.9029585549E-01  -0.2056640275E-02   0.0000000000E+00   0.4593906480E-02
   0.1570653390E+00   0.2242219694E+00   0.4244100899E-04  -0.1983519941E-04   0.8488201798E-04  -0.3967039882E-04   0.9206031937E-01  -0.1221118696E-02   0.0000000000E+00   0.2162051059E-02
   0.1468305058E+00   0.2325511721E+00   0.3815926091E-04  -0.2221764845E-04   0.7631852183E-04  -0.4443529689E-04   0.9246627046E-01  -0.5231059000E-03   0.0000000000E+00   0.2404006800E-02
   0.1377068306E+00   0.2241526609E+00   0.3653252874E-04  -0.2293069678E-04   0.7306505748E-04  -0.4586139357E-04   0.9071534153E-01  -0.1320839987E-02   0.0000000000E+00   0.3895321915E-02
   0.1479414764E+00   0.2158237914E+00   0.4075179788E-04  -0.2043718782E-04   0.8150359577E-04  -0.4087437564E-04   0.9063001931E-01  -0.2046468627E-02   0.0000000000E+00   0.3459491913E-02
   0.0000000000E+00   0.9989799099E-01   0.0000000000E+00  -0.3400333501E-04   0.0000000000E+00  -0.6800667003E-04   0.2434727786E+00   0.3970518255E-02   0.0000000000E+00   0.4414222239E-03
   0.1955613526E-01   0.9797930649E-01   0.1570095481E-04  -0.3307336991E-04   0.3140190963E-04  -0.6614673981E-04   0.2182795119E+00   0.8705224775E-02   0.0000000000E+00  -0.4077799040E-01
   0.9825408144E-02   0.9941710986E-01   0.7897821329E-05  -0.3378688074E-04   0.1579564266E-04  -0.6757376149E-04   0.2367522503E+00   0.5689648158E-02   0.0000000000E+00  -0.2228759999E-01
   0.1936880617E-01   0.1070811855E+00   0.1240685820E-04  -0.3455715955E-04   0.2481371640E-04  -0.6911431911E-04   0.1839690271E+00   0.1543198076E-01   0.0000000000E+00  -0.2173904108E-01
   0.0000000000E+00   0.1082265018E+00   0.0000000000E+00  -0.3561072661E-04   0.0000000000E+00  -0.7122145322E-04   0.1985205536E+00   0.1271705730E-01   0.0000000000E+00   0.1374034701E-03
   0.1681684203E-01   0.1512230718E+00   0.5927742956E-05  -0.3788106086E-04   0.1185548591E-04  -0.7576212171E-04   0.1117516934E+00   0.2007588312E-01   0.0000000000E+00   0.4455601079E-02
   0.0000000000E+00   0.1498844566E+00   0.0000000000E+00  -0.3851645502E-04   0.0000000000E+00  -0.7703291005E-04   0.1137406758E+00   0.2231100620E-01   0.0000000000E+00   0.5728026664E-04
   0.1729669784E-01   0.1426749358E+00   0.6553380143E-05  -0.3743740546E-04   0.1310676029E-04  -0.7487481092E-04   0.1196041585E+00   0.2091063567E-01   0.0000000000E+00   0.3203750931E-02
   0.8408469734E-02   0.1505532474E+00   0.2980117935E-05  -0.3836853616E-04   0.5960235870E-05  -0.7673707232E-04   0.1128366560E+00   0.2158048999E-01   0.0000000000E+00   0.2162224584E-02
   0.0000000000E+00   0.1415521781E+00   0.0000000000E+00  -0.3816764391E-04   0.0000000000E+00  -0.7633528781E-04   0.1223045498E+00   0.2327531745E-01   0.0000000000E+00   0.1534937513E-03
   0.5111351261E-01   0.1385743867E+00   0.1973417048E-04  -0.3175110359E-04   0.3946834096E-04  -0.6350220719E-04   0.1133997030E+00   0.7736346977E-02   0.0000000000E+00   0.6711058512E-02
   0.4909774621E-01   0.1539596343E+00   0.1694747149E-04  -0.3344724205E-04   0.3389494297E-04  -0.6689448410E-04   0.1057800129E+00   0.7883158997E-02   0.0000000000E+00   0.9916124327E-02
   0.3321019204E-01   0.1526282585E+00   0.1157578080E-04  -0.3606548873E-04   0.2315156161E-04  -0.7213097747E-04   0.1087704601E+00   0.1457119844E-01   0.0000000000E+00   0.7942231316E-02
   0.3441302050E-01   0.1356353922E+00   0.1384796527E-04  -0.3479858455E-04   0.2769593053E-04  -0.6959716909E-04   0.1213208613E+00   0.1604232455E-01   0.0000000000E+00   0.4775834043E-02
   0.5010529014E-01   0.1462669407E+00   0.1822711405E-04  -0.3262243050E-04   0.3645422809E-04  -0.6524486100E-04   0.1098417321E+00   0.8087602635E-02   0.0000000000E+00   0.8296094962E-02
   0.4115400757E-01   0.1532936921E+00   0.1427382263E-04  -0.3484128727E-04   0.2854764526E-04  -0.6968257454E-04   0.1072898788E+00   0.1137248857E-01   0.0000000000E+00   0.9008228717E-02
   0.3381121167E-01   0.1441317662E+00   0.1258032462E-04  -0.3544928244E-04   0.2516064924E-04  -0.7089856488E-04   0.1149103396E+00   0.1546011951E-01   0.0000000000E+00   0.6111017763E-02
   0.4276337853E-01   0.1371046112E+00   0.1682840918E-04  -0.3336525083E-04   0.3365681837E-04  -0.6673050166E-04   0.1174261020E+00   0.1182319780E-01   0.0000000000E+00   0.5140540053E-02
   0.1670052603E-01   0.1676871527E+00   0.5286577683E-05  -0.3866178194E-04   0.1057315537E-04  -0.7732356388E-04   0.9987016117E-01   0.1554189742E-01   0.0000000000E+00   0.4951273355E-02
   0.0000000000E+00   0.1665490416E+00   0.0000000000E+00  -0.3921014406E-04   0.0000000000E+00  -0.7842028812E-04   0.1006729726E+00   0.1732517360E-01   0.0000000000E+00   0.7525922483E-04
   0.8350279701E-02   0.1671176499E+00   0.2648853544E-05  -0.3908270117E-04   0.5297707089E-05  -0.7816540234E-04   0.1003902279E+00   0.1682408115E-01   0.0000000000E+00   0.2433443071E-02
   0.0000000000E+00   0.1582167578E+00   0.0000000000E+00  -0.3885773460E-04   0.0000000000E+00  -0.7771546921E-04   0.1064852018E+00   0.1942647905E-01   0.0000000000E+00   0.7193024582E-04
   0.1675858435E-01   0.1594551176E+00   0.5573950731E-05  -0.3826714872E-04   0.1114790146E-04  -0.7653429744E-04   0.1052347403E+00   0.1752910999E-01   0.0000000000E+00   0.4604811026E-02
   0.1710640326E-01   0.1840071242E+00   0.4980287285E-05  -0.3946793105E-04   0.9960574570E-05  -0.7893586210E-04   0.9099799226E-01   0.1109026238E-01   0.0000000000E+00   0.4869422452E-02
   0.3342221213E-01   0.1684959108E+00   0.1056711111E-04  -0.3699373899E-04   0.2113422222E-04  -0.7398747799E-04   0.9912849489E-01   0.1155242518E-01   0.0000000000E+00   0.8927083167E-02
   0.3454361114E-01   0.1841657585E+00   0.1010301177E-04  -0.3782484591E-04   0.2020602353E-04  -0.7564969182E-04   0.9143096477E-01   0.8260072333E-02   0.0000000000E+00   0.8886954539E-02
   0.1690343073E-01   0.1758471681E+00   0.5122444002E-05  -0.3905263760E-04   0.1024488800E-04  -0.7810527520E-04   0.9518490474E-01   0.1320091133E-01   0.0000000000E+00   0.4856664592E-02
   0.2506136511E-01   0.1680911621E+00   0.7925502053E-05  -0.3795362184E-04   0.1585100411E-04  -0.7590724367E-04   0.9960176528E-01   0.1387901714E-01   0.0000000000E+00   0.6876576452E-02
   0.3398286601E-01   0.1763308640E+00   0.1031923594E-04  -0.3740199698E-04   0.2063847188E-04  -0.7480399395E-04   0.9512742861E-01   0.9878778697E-02   0.0000000000E+00   0.8840404677E-02
   0.2582498003E-01   0.1840860556E+00   0.7532908943E-05  -0.3877246437E-04   0.1506581789E-04  -0.7754492874E-04   0.9127129246E-01   0.9897737733E-02   0.0000000000E+00   0.6879836639E-02
   0.1945468600E-01   0.2498700756E+00   0.3413634832E-05  -0.4330811791E-04   0.6827269664E-05  -0.8661623582E-04   0.5352176189E-01  -0.3000005966E-03   0.0000000000E+00   0.1567835493E-03
   0.3850334769E-01   0.2328223785E+00   0.8510664523E-05  -0.4063384994E-04   0.1702132905E-04  -0.8126769987E-04   0.6915453194E-01   0.5577324750E-03   0.0000000000E+00   0.4565675849E-02
   0.3891003924E-01   0.2498749929E+00   0.7049648243E-05  -0.4166904321E-04   0.1409929649E-04  -0.8333808643E-04   0.5858596932E-01  -0.2186652876E-03   0.0000000000E+00   0.2787075742E-03
   0.1928277342E-01   0.2415328817E+00   0.3818505861E-05  -0.4284442967E-04   0.7637011723E-05  -0.8568885935E-04   0.6026383593E-01   0.3497926608E-03   0.0000000000E+00   0.1329500312E-02
   0.2880689928E-01   0.2330086999E+00   0.6298392780E-05  -0.4161803962E-04   0.1259678556E-04  -0.8323607923E-04   0.6751890454E-01   0.7538901740E-03   0.0000000000E+00   0.3443787013E-02
   0.3870691637E-01   0.2413486350E+00   0.7853824579E-05  -0.4116834707E-04   0.1570764916E-04  -0.8233669414E-04   0.6427637187E-01   0.2537413774E-03   0.0000000000E+00   0.2452341477E-02
   0.2918224626E-01   0.2498721582E+00   0.5192520584E-05  -0.4261393285E-04   0.1038504117E-04  -0.8522786569E-04   0.5603178834E-01  -0.1976963450E-03   0.0000000000E+00   0.1046606572E-03
   0.2501356125E-01   0.1519252583E+00   0.8766516931E-05  -0.3710624352E-04   0.1753303386E-04  -0.7421248705E-04   0.1102601842E+00   0.1740631079E-01   0.0000000000E+00   0.6166754873E-02
   0.3331605660E-01   0.1605620932E+00   0.1102293190E-04  -0.3652926902E-04   0.2204586379E-04  -0.7305853803E-04   0.1037403349E+00   0.1302790956E-01   0.0000000000E+00   0.8287656179E-02
   0.3294581790E+00   0.0000000000E+00   0.9716599975E-04   0.0000000000E+00   0.1943319995E-03   0.0000000000E+00   0.4470339898E-01   0.1337300525E-01   0.0000000000E+00  -0.4792992064E-05
   0.3502999940E+00   0.0000000000E+00   0.1000000000E-03   0.0000000000E+00   0.2000000000E-03   0.0000000000E+00   0.4497063506E-01   0.1347174124E-01   0.0000000000E+00  -0.1289727350E-05
   0.3502999940E+00   0.1923072896E-01   0.1000000000E-03  -0.1364793052E-07   0.2000000000E-03  -0.2729586104E-07   0.4550827756E-01   0.1323967461E-01   0.0000000000E+00  -0.1574170533E-05
   0.3300544092E+00   0.1871450331E-01   0.9720739830E-04  -0.1399512518E-07   0.1944147966E-03  -0.2799025035E-07   0.4523867149E-01   0.1315414099E-01   0.0000000000E+00  -0.4769873356E-03
   0.3398790799E+00   0.0000000000E+00   0.9858097942E-04   0.0000000000E+00   0.1971619588E-03   0.0000000000E+00   0.4483800429E-01   0.1342719613E-01   0.0000000000E+00  -0.4472308193E-05
   0.3502999940E+00   0.9615373859E-02   0.1000000000E-03  -0.3703679242E-08   0.2000000000E-03  -0.7407358483E-08   0.4507693296E-01   0.1331076091E-01   0.0000000000E+00   0.1078550497E-06
   0.3401771942E+00   0.1897261705E-01   0.9860138934E-04  -0.1351508110E-07   0.1972027787E-03  -0.2703016219E-07   0.4537460589E-01   0.1320327125E-01   0.0000000000E+00  -0.2394375817E-03
   0.3297563232E+00   0.9357260424E-02   0.9719639113E-04  -0.4075448764E-08   0.1943927823E-03  -0.8150897527E-08   0.4480722874E-01   0.1321785776E-01   0.0000000000E+00  -0.2388984191E-03
   0.3502999940E+00   0.3846130935E-01   0.1000000000E-03  -0.7685153289E-07   0.2000000000E-03  -0.1537030658E-06   0.4709148186E-01   0.1256356773E-01   0.0000000000E+00  -0.8125371429E-06
   0.3304972880E+00   0.3768280473E-01   0.9715334598E-04  -0.7592388220E-07   0.1943066920E-03  -0.1518477644E-06   0.4680834484E-01   0.1249324651E-01   0.0000000000E+00  -0.8898606143E-03
   0.3502999940E+00   0.2884604754E-01   0.1000000000E-03  -0.3611923548E-07   0.2000000000E-03  -0.7223847097E-07   0.4614665574E-01   0.1285828676E-01   0.0000000000E+00  -0.1402416091E-05
   0.3403986322E+00   0.3807206126E-01   0.9857373116E-04  -0.7557873884E-07   0.1971474623E-03  -0.1511574777E-06   0.4695312412E-01   0.1254047102E-01   0.0000000000E+00  -0.4463623211E-03
   0.3302758741E+00   0.2819868147E-01   0.9718902559E-04  -0.3611120029E-07   0.1943780512E-03  -0.7222240059E-07   0.4586883392E-01   0.1278013152E-01   0.0000000000E+00  -0.6831911047E-03
   0.3308495756E+00   0.5676203069E-01   0.9702220808E-04  -0.2314689357E-06   0.1940444162E-03  -0.4629378714E-06   0.4932984000E-01   0.1144848470E-01   0.0000000000E+00  -0.1212188069E-02
   0.3311281518E+00   0.7595508915E-01   0.9682825743E-04  -0.5203174655E-06   0.1936565149E-03  -0.1040634931E-05   0.5266483472E-01   0.1011110604E-01   0.0000000000E+00  -0.1426956723E-02
   0.3120926590E+00   0.7514388723E-01   0.9370733604E-04  -0.5418552751E-06   0.1874146721E-03  -0.1083710550E-05   0.5224358410E-01   0.9775435345E-02   0.0000000000E+00  -0.2856861963E-02
   0.3114271551E+00   0.5605246633E-01   0.9407902322E-04  -0.2441891547E-06   0.1881580464E-03  -0.4883783094E-06   0.4877556417E-01   0.1113233734E-01   0.0000000000E+00  -0.2435948901E-02
   0.3309888650E+00   0.6635861183E-01   0.9693065678E-04  -0.3573580699E-06   0.1938613136E-03  -0.7147161397E-06   0.5088934307E-01   0.1074803806E-01   0.0000000000E+00  -0.1321094558E-02
   0.3216103786E+00   0.7554949399E-01   0.9526386897E-04  -0.5279030990E-06   0.1905277379E-03  -0.1055806198E-05   0.5246340065E-01   0.9973333386E-02   0.0000000000E+00  -0.2135979547E-02
   0.3117599380E+00   0.6559822950E-01   0.9390366115E-04  -0.3741998144E-06   0.1878073223E-03  -0.7483996288E-06   0.5040053265E-01   0.1042209735E-01   0.0000000000E+00  -0.2650885720E-02
   0.3211383507E+00   0.5640725391E-01   0.9554589392E-04  -0.2360305565E-06   0.1910917878E-03  -0.4720611131E-06   0.4905922474E-01   0.1131193567E-01   0.0000000000E+00  -0.1818132947E-02
   0.3312720768E+00   0.9525308086E-01   0.9657325277E-04  -0.9733139228E-06   0.1931465055E-03  -0.1946627846E-05   0.5663702329E-01   0.8589225717E-02   0.0000000000E+00  -0.1537730007E-02
   0.3124682910E+00   0.9439759800E-01   0.9321199153E-04  -0.1007999475E-05   0.1864239831E-03  -0.2015998949E-05   0.5634929936E-01   0.8237831903E-02   0.0000000000E+00  -0.3065232735E-02
   0.3312001411E+00   0.8560414625E-01   0.9670469340E-04  -0.7251499105E-06   0.1934093868E-03  -0.1450299821E-05   0.5457351631E-01   0.9326680132E-02   0.0000000000E+00  -0.1483879181E-02
   0.3218701747E+00   0.9482535076E-01   0.9488956178E-04  -0.9856129139E-06   0.1897791236E-03  -0.1971225828E-05   0.5650446277E-01   0.8450823550E-02   0.0000000000E+00  -0.2296166404E-02
   0.3122804975E+00   0.8477080492E-01   0.9346717393E-04  -0.7529276206E-06   0.1869343479E-03  -0.1505855241E-05   0.5421935066E-01   0.8983239014E-02   0.0000000000E+00  -0.2965110795E-02
   0.3312575792E+00   0.1147047244E+00   0.9626071748E-04  -0.1613188114E-05   0.1925214350E-03  -0.3226376229E-05   0.6106833122E-01   0.6989463716E-02   0.0000000000E+00  -0.1558041915E-02
   0.3311153940E+00   0.1342676839E+00   0.9590368000E-04  -0.2450047219E-05   0.1918073600E-03  -0.4900094438E-05   0.6576559669E-01   0.5414655203E-02   0.0000000000E+00  -0.1502708667E-02
   0.3120733848E+00   0.1337860475E+00   0.9184261400E-04  -0.2544819224E-05   0.1836852280E-03  -0.5089638448E-05   0.6580165021E-01   0.5041647238E-02   0.0000000000E+00  -0.2971484586E-02
   0.3124637690E+00   0.1139305140E+00   0.9258865757E-04  -0.1669669854E-05   0.1851773151E-03  -0.3339339709E-05   0.6092754296E-01   0.6624087554E-02   0.0000000000E+00  -0.3091577951E-02
   0.3311864766E+00   0.1244862809E+00   0.9608386233E-04  -0.2007375682E-05   0.1921677247E-03  -0.4014751365E-05   0.6339929534E-01   0.6195548574E-02   0.0000000000E+00  -0.1530578868E-02
   0.3215944050E+00   0.1340269038E+00   0.9387332126E-04  -0.2487073531E-05   0.1877466425E-03  -0.4974147062E-05   0.6579775022E-01   0.5273020601E-02   0.0000000000E+00  -0.2233505061E-02
   0.3122685882E+00   0.1238583599E+00   0.9221940322E-04  -0.2082048813E-05   0.1844388064E-03  -0.4164097626E-05   0.6334753148E-01   0.5825881619E-02   0.0000000000E+00  -0.3032582173E-02
   0.3218606686E+00   0.1143176410E+00   0.9442285439E-04  -0.1634011698E-05   0.1888457088E-03  -0.3268023395E-05   0.6101036647E-01   0.6849345827E-02   0.0000000000E+00  -0.2320547227E-02
   0.2892706880E+00   0.1826410197E-01   0.9170799272E-04  -0.2354311559E-07   0.1834159854E-03  -0.4708623119E-07   0.4317351893E-01   0.1234362928E-01   0.0000000000E+00  -0.1486221514E-02
   0.2877749009E+00   0.0000000000E+00   0.9163562282E-04   0.0000000000E+00   0.1832712456E-03   0.0000000000E+00   0.4245517992E-01   0.1255263507E-01   0.0000000000E+00  -0.1810126241E-04
   0.3086164352E+00   0.0000000000E+00   0.9436607135E-04   0.0000000000E+00   0.1887321427E-03   0.0000000000E+00   0.4387445905E-01   0.1307342168E-01   0.0000000000E+00  -0.1097936136E-04
   0.3096709083E+00   0.1840620192E-01   0.9442810722E-04  -0.1712520671E-07   0.1888562144E-03  -0.3425041342E-07   0.4447043237E-01   0.1286174808E-01   0.0000000000E+00  -0.9609203502E-03
   0.2885228676E+00   0.9132060323E-02   0.9170120964E-04  -0.8658849060E-08   0.1834024193E-03  -0.1731769812E-07   0.4263151343E-01   0.1239901390E-01   0.0000000000E+00  -0.7466273226E-03
   0.2981956203E+00   0.0000000000E+00   0.9298977011E-04   0.0000000000E+00   0.1859795402E-03   0.0000000000E+00   0.4316601998E-01   0.1282040639E-01   0.0000000000E+00  -0.1065693368E-04
   0.3091437298E+00   0.9203109764E-02   0.9441625417E-04  -0.5628832717E-08   0.1888325083E-03  -0.1125766543E-07   0.4400647511E-01   0.1292148456E-01   0.0000000000E+00  -0.4823294622E-03
   0.2994707686E+00   0.1833515235E-01   0.9305819540E-04  -0.1988257781E-07   0.1861163908E-03  -0.3976515562E-07   0.4382409979E-01   0.1261218416E-01   0.0000000000E+00  -0.1215303971E-02
   0.2124050358E+00   0.1636671503E+00   0.6594092398E-04  -0.7820578340E-05   0.1318818480E-03  -0.1564115668E-04   0.7852752205E-01  -0.2906201267E-02   0.0000000000E+00  -0.5400691772E-02
   0.2165155670E+00   0.1467509464E+00   0.6902600468E-04  -0.6102880721E-05   0.1380520094E-03  -0.1220576144E-04   0.7375176965E-01  -0.2698867655E-02   0.0000000000E+00  -0.7193622852E-02
   0.2311728516E+00   0.1467197557E+00   0.7262552779E-04  -0.5314084999E-05   0.1452510556E-03  -0.1062817000E-04   0.7243309895E-01  -0.1029771524E-02   0.0000000000E+00  -0.6985112791E-02
   0.2323627087E+00   0.1630855822E+00   0.7119991221E-04  -0.6530929652E-05   0.1423998244E-03  -0.1306185930E-04   0.7661120358E-01  -0.1070825871E-02   0.0000000000E+00  -0.5643057603E-02
   0.2144603045E+00   0.1552090926E+00   0.6748448454E-04  -0.6944456758E-05   0.1349689691E-03  -0.1388891352E-04   0.7628256027E-01  -0.2797202401E-02   0.0000000000E+00  -0.6258969760E-02
   0.2238442513E+00   0.1467354151E+00   0.7083708638E-04  -0.5687301115E-05   0.1416741728E-03  -0.1137460223E-04   0.7310554510E-01  -0.1791447674E-02   0.0000000000E+00  -0.7088536284E-02
   0.2317677299E+00   0.1549026850E+00   0.7189829772E-04  -0.5914651990E-05   0.1437965954E-03  -0.1182930398E-04   0.7454736246E-01  -0.1036686210E-02   0.0000000000E+00  -0.6305073749E-02
   0.2223839376E+00   0.1633765003E+00   0.6859219861E-04  -0.7130906879E-05   0.1371843972E-03  -0.1426181376E-04   0.7752432248E-01  -0.2004307947E-02   0.0000000000E+00  -0.5574017908E-02
   0.2280182143E+00   0.1845684735E-01   0.8425277236E-04  -0.8164842681E-07   0.1685055447E-03  -0.1632968536E-06   0.3537280530E-01   0.8880978147E-02   0.0000000000E+00  -0.3711590277E-02
   0.2308693549E+00   0.3704743297E-01   0.8369064660E-04  -0.2439445755E-06   0.1673812932E-03  -0.4878891509E-06   0.3896965164E-01   0.7900972696E-02   0.0000000000E+00  -0.6662666474E-02
   0.2294439645E+00   0.2775218429E-01   0.8403182291E-04  -0.1480710484E-06   0.1680636458E-03  -0.2961420967E-06   0.3692614324E-01   0.8328873578E-02   0.0000000000E+00  -0.5194969977E-02
   0.2208286032E+00   0.3733980954E-01   0.8246639227E-04  -0.2970213134E-06   0.1649327845E-03  -0.5940426268E-06   0.3745628470E-01   0.6786467323E-02   0.0000000000E+00  -0.7549741135E-02
   0.2177483460E+00   0.1859724671E-01   0.8315901413E-04  -0.1037976793E-06   0.1663180283E-03  -0.2075953586E-06   0.3323587474E-01   0.7825655277E-02   0.0000000000E+00  -0.4236653082E-02
   0.1835751443E+00   0.0000000000E+00   0.8060242296E-04   0.0000000000E+00   0.1612048459E-03   0.0000000000E+00   0.2238758598E-01   0.3374930921E-02   0.0000000000E+00  -0.1335245146E-03
   0.2044134832E+00   0.0000000000E+00   0.8227239634E-04   0.0000000000E+00   0.1645447927E-03   0.0000000000E+00   0.2874028139E-01   0.6816785123E-02   0.0000000000E+00  -0.8362650131E-04
   0.1852624732E+00   0.9506130979E-02   0.8057605756E-04  -0.1097671640E-06   0.1611521151E-03  -0.2195343280E-06   0.2335848969E-01   0.3246785491E-02   0.0000000000E+00  -0.3143185636E-02
   0.1939941646E+00   0.0000000000E+00   0.8139021466E-04   0.0000000000E+00   0.1627804293E-03   0.0000000000E+00   0.2564764379E-01   0.5249835025E-02   0.0000000000E+00  -0.8728698188E-04
   0.2059463760E+00   0.9368827869E-02   0.8230067426E-04  -0.6136701851E-07   0.1646013485E-03  -0.1227340370E-06   0.2947807273E-01   0.6637709867E-02   0.0000000000E+00  -0.2447406384E-02
   0.1419022221E+00   0.0000000000E+00   0.7851869386E-04   0.0000000000E+00   0.1570373877E-03   0.0000000000E+00   0.4516464047E-02  -0.1262542664E-01   0.0000000000E+00  -0.4813717305E-03
   0.1459020354E+00   0.2097884214E-01   0.7745046577E-04  -0.9064187506E-06   0.1549009315E-03  -0.1812837501E-05   0.1123755249E-01  -0.9969930400E-02   0.0000000000E+00  -0.9914059002E-02
   0.1439029535E+00   0.1048937423E-01   0.7825950348E-04  -0.4688232932E-06   0.1565190070E-03  -0.9376465864E-06   0.6356670722E-02  -0.1185660990E-01   0.0000000000E+00  -0.4814329800E-02
   0.1339300175E+00   0.2354226007E-01   0.7657882873E-04  -0.1558010065E-05   0.1531576575E-03  -0.3116020130E-05   0.7490062222E-02  -0.1764688127E-01   0.0000000000E+00  -0.1001444194E-01
   0.1314847004E+00   0.0000000000E+00   0.7823547557E-04   0.0000000000E+00   0.1564709511E-03   0.0000000000E+00   0.1013297026E-02  -0.2155757420E-01   0.0000000000E+00   0.2510511424E-05
   0.3502999940E+00   0.2499677539E+00   0.1000000000E-03  -0.1074868917E-04   0.2000000000E-03  -0.2149737834E-04   0.8983470703E-01  -0.6732365848E-04   0.0000000000E+00   0.1257759547E-05
   0.3308380620E+00   0.2499675187E+00   0.9416801397E-04  -0.1082708352E-04   0.1883360279E-03  -0.2165416704E-04   0.9009174740E-01  -0.6487417518E-04   0.0000000000E+00  -0.1619240124E-04
   0.3310718185E+00   0.2310193245E+00   0.9442181827E-04  -0.9147150247E-05   0.1888436365E-03  -0.1829430049E-04   0.8724577265E-01   0.1529521422E-03   0.0000000000E+00  -0.4358735187E-03
   0.3502999940E+00   0.2307420793E+00   0.1000000000E-03  -0.9050914433E-05   0.2000000000E-03  -0.1810182887E-04   0.8701717093E-01   0.1642883449E-03   0.0000000000E+00  -0.5462408019E-05
   0.3405690490E+00   0.2499676949E+00   0.9708600961E-04  -0.1076836685E-04   0.1941720192E-03  -0.2153673370E-04   0.8996325502E-01  -0.5327661412E-04   0.0000000000E+00  -0.5716925315E-05
   0.3309549184E+00   0.2404934470E+00   0.9428781518E-04  -0.9978673854E-05   0.1885756304E-03  -0.1995734771E-04   0.8879445942E-01   0.7472670877E-04   0.0000000000E+00  -0.2279044071E-03
   0.3406858973E+00   0.2308807636E+00   0.9721311344E-04  -0.9080812461E-05   0.1944262269E-03  -0.1816162492E-04   0.8713606048E-01   0.1749587626E-03   0.0000000000E+00  -0.2152472326E-03
   0.3502999940E+00   0.2403549354E+00   0.1000000000E-03  -0.9891213843E-05   0.2000000000E-03  -0.1978242769E-04   0.8855752237E-01   0.8017536283E-04   0.0000000000E+00  -0.1698791076E-05
   0.2732517660E+00   0.2316343063E+00   0.7739467321E-04  -0.1040524176E-04   0.1547893464E-03  -0.2081048352E-04   0.8986460417E-01   0.5285873404E-04   0.0000000000E+00  -0.1369640998E-02
   0.2925119381E+00   0.2314602840E+00   0.8312803438E-04  -0.9801329486E-05   0.1662560688E-03  -0.1960265897E-04   0.8872342258E-01   0.9879783872E-04   0.0000000000E+00  -0.1153107672E-02
   0.2919137813E+00   0.2499655351E+00   0.8237478106E-04  -0.1148828630E-04   0.1647495621E-03  -0.2297657259E-04   0.9205599046E-01  -0.4374468998E-04   0.0000000000E+00  -0.4401872814E-04
   0.2724512934E+00   0.2499636523E+00   0.7635746852E-04  -0.1211589858E-04   0.1527149370E-03  -0.2423179717E-04   0.9360709963E-01  -0.2545446460E-04   0.0000000000E+00  -0.5272757318E-04
   0.2828818651E+00   0.2315473755E+00   0.8027068635E-04  -0.1007648711E-04   0.1605413727E-03  -0.2015297421E-04   0.8929694973E-01   0.8805664938E-04   0.0000000000E+00  -0.1248166519E-02
   0.2922127909E+00   0.2407129363E+00   0.8273330264E-04  -0.1063589924E-04   0.1654666053E-03  -0.2127179848E-04   0.9046906834E-01   0.4777827915E-04   0.0000000000E+00  -0.6038763100E-03
   0.2821825888E+00   0.2499646775E+00   0.7937825915E-04  -0.1177416789E-04   0.1587565183E-03  -0.2354833578E-04   0.9283051706E-01  -0.2559403700E-04   0.0000000000E+00  -0.2638100505E-04
   0.2728514821E+00   0.2407990074E+00   0.7685535467E-04  -0.1125119327E-04   0.1537107093E-03  -0.2250238654E-04   0.9177656660E-01   0.2508138099E-04   0.0000000000E+00  -0.7178026726E-03
   0.3502999940E+00   0.1730630978E+00   0.1000000000E-03  -0.4610076525E-05   0.2000000000E-03  -0.9220153050E-05   0.7504687811E-01   0.2772075938E-02   0.0000000000E+00  -0.3855133958E-05
   0.3310638332E+00   0.1733002716E+00   0.9523705023E-04  -0.4682124139E-05   0.1904741005E-03  -0.9364248278E-05   0.7519593770E-01   0.2668606592E-02   0.0000000000E+00  -0.1201562298E-02
   0.3310563628E+00   0.1538369162E+00   0.9555825324E-04  -0.3478583374E-05   0.1911165065E-03  -0.6957166749E-05   0.7053290077E-01   0.3955057581E-02   0.0000000000E+00  -0.1376195237E-02
   0.3502999940E+00   0.1538358690E+00   0.1000000000E-03  -0.3430317522E-05   0.2000000000E-03  -0.6860635044E-05   0.7045825244E-01   0.4072171704E-02   0.0000000000E+00  -0.3344507488E-05
   0.3406819344E+00   0.1731817344E+00   0.9762047462E-04  -0.4631851347E-05   0.1952409492E-03  -0.9263702694E-05   0.7513183519E-01   0.2752532163E-02   0.0000000000E+00  -0.6001617943E-03
   0.3310600781E+00   0.1635686592E+00   0.9539603593E-04  -0.4058593112E-05   0.1907920719E-03  -0.8117186223E-05   0.7289296254E-01   0.3319856303E-02   0.0000000000E+00  -0.1286060471E-02
   0.3406781811E+00   0.1538364291E+00   0.9778003155E-04  -0.3442288572E-05   0.1955600631E-03  -0.6884577143E-05   0.7050828518E-01   0.4052008374E-02   0.0000000000E+00  -0.6869854960E-03
   0.3502999940E+00   0.1634495397E+00   0.1000000000E-03  -0.3998780504E-05   0.2000000000E-03  -0.7997561008E-05   0.7277830013E-01   0.3429368288E-02   0.0000000000E+00  -0.3177356914E-05
   0.3502999940E+00   0.1346081081E+00   0.1000000000E-03  -0.2427624635E-05   0.2000000000E-03  -0.4855249270E-05   0.6579976857E-01   0.5524026560E-02   0.0000000000E+00  -0.2530510282E-05
   0.3310858785E+00   0.1440523706E+00   0.9573084608E-04  -0.2940799397E-05   0.1914616922E-03  -0.5881598795E-05   0.6815662903E-01   0.4686245636E-02   0.0000000000E+00  -0.1438463887E-02
   0.3407076924E+00   0.1344379326E+00   0.9795111672E-04  -0.2429138032E-05   0.1959022334E-03  -0.4858276065E-05   0.6579611740E-01   0.5510796555E-02   0.0000000000E+00  -0.7497152717E-03
   0.3502999940E+00   0.1442220644E+00   0.1000000000E-03  -0.2906193471E-05   0.2000000000E-03  -0.5812386941E-05   0.6813414039E-01   0.4798300810E-02   0.0000000000E+00  -0.2296350228E-05
   0.3502999940E+00   0.1153797857E+00   0.1000000000E-03  -0.1610091542E-05   0.2000000000E-03  -0.3220183083E-05   0.6121509363E-01   0.7076194798E-02   0.0000000000E+00  -0.1425444258E-05
   0.3407787650E+00   0.1150422765E+00   0.9812800739E-04  -0.1604497738E-05   0.1962560148E-03  -0.3208995476E-05   0.6115423782E-01   0.7073058396E-02   0.0000000000E+00  -0.7773965362E-03
   0.3502999940E+00   0.1249940135E+00   0.1000000000E-03  -0.1995488906E-05   0.2000000000E-03  -0.3990977811E-05   0.6348837492E-01   0.6293141334E-02   0.0000000000E+00  -0.1781246523E-05
   0.3502999940E+00   0.9615091130E-01   0.1000000000E-03  -0.9788651157E-06   0.2000000000E-03  -0.1957730231E-05   0.5686673017E-01   0.8656189518E-02   0.0000000000E+00  -0.9316286167E-06
   0.3312648512E+00   0.1049789691E+00   0.9641973966E-04  -0.1269632722E-05   0.1928394793E-03  -0.2539265443E-05   0.5880601390E-01   0.7774539151E-02   0.0000000000E+00  -0.1548983933E-02
   0.3407860257E+00   0.9570201443E-01   0.9828323462E-04  -0.9711900109E-06   0.1965664692E-03  -0.1942380022E-05   0.5676277140E-01   0.8658312421E-02   0.0000000000E+00  -0.7677882141E-03
   0.3502999940E+00   0.1057654175E+00   0.1000000000E-03  -0.1271484825E-05   0.2000000000E-03  -0.2542969649E-05   0.5899429935E-01   0.7851124771E-02   0.0000000000E+00  -0.1177656351E-05
   0.3502999940E+00   0.7692150056E-01   0.1000000000E-03  -0.5264135637E-06   0.2000000000E-03  -0.1052827127E-05   0.5293736663E-01   0.1016965766E-01   0.0000000000E+00  -0.8686799266E-06
   0.3407140473E+00   0.7643830404E-01   0.9841043797E-04  -0.5202868743E-06   0.1968208759E-03  -0.1040573749E-05   0.5280977105E-01   0.1016898369E-01   0.0000000000E+00  -0.7133072760E-03
   0.3502999940E+00   0.8653627018E-01   0.1000000000E-03  -0.7312050965E-06   0.2000000000E-03  -0.1462410193E-05   0.5482537991E-01   0.9389378146E-02   0.0000000000E+00  -0.9412766786E-06
   0.3502999940E+00   0.5769160259E-01   0.1000000000E-03  -0.2351354678E-06   0.2000000000E-03  -0.4702709356E-06   0.4961820786E-01   0.1150853122E-01   0.0000000000E+00  -0.1070511336E-05
   0.3405747738E+00   0.5722681994E-01   0.9850760919E-04  -0.2315866265E-06   0.1970152184E-03  -0.4631732530E-06   0.4947996968E-01   0.1149884994E-01   0.0000000000E+00  -0.6067872295E-03
   0.3306734527E+00   0.4722246024E-01   0.9709491562E-04  -0.1395199847E-06   0.1941898312E-03  -0.2790399693E-06   0.4793405522E-01   0.1193208759E-01   0.0000000000E+00  -0.1051928531E-02
   0.3502999940E+00   0.4807649911E-01   0.1000000000E-03  -0.1415977144E-06   0.2000000000E-03  -0.2831954288E-06   0.4822149222E-01   0.1199749417E-01   0.0000000000E+00  -0.1001767269E-05
   0.0000000000E+00   0.2498683696E+00   0.0000000000E+00  -0.4387679175E-04   0.0000000000E+00  -0.8775358350E-04   0.5171830016E-01  -0.3254692316E-03   0.0000000000E+00   0.1050035347E-04
   0.9727301444E-02   0.2498687964E+00   0.1692958133E-05  -0.4373453993E-04   0.3385916265E-05  -0.8746907987E-04   0.5258835457E-01  -0.2434911419E-03   0.0000000000E+00   0.3913734935E-04
   0.0000000000E+00   0.2415364250E+00   0.0000000000E+00  -0.4341667409E-04   0.0000000000E+00  -0.8683334818E-04   0.5888497981E-01   0.3912552333E-03   0.0000000000E+00   0.2987610539E-04
   0.3761518143E-01   0.2160998924E+00   0.9380743140E-05  -0.3959585638E-04   0.1876148628E-04  -0.7919171275E-04   0.7744760463E-01   0.2495189859E-02   0.0000000000E+00   0.7020318776E-02
   0.3622282459E-01   0.1999887186E+00   0.9839030144E-05  -0.3866014597E-04   0.1967806029E-04  -0.7732029194E-04   0.8448681678E-01   0.5121464059E-02   0.0000000000E+00   0.8347640704E-02
   0.5562907980E-01   0.1985016544E+00   0.1538593338E-04  -0.3578985916E-04   0.3077186675E-04  -0.7157971832E-04   0.8677925024E-01   0.2528355822E-02   0.0000000000E+00   0.1090834286E-01
   0.5755079642E-01   0.2148151272E+00   0.1468544049E-04  -0.3674058595E-04   0.2937088098E-04  -0.7348117189E-04   0.8084099447E-01   0.1212224099E-02   0.0000000000E+00   0.9256698890E-02
   0.3691906484E-01   0.2080443091E+00   0.9631112602E-05  -0.3912429278E-04   0.1926222520E-04  -0.7824858555E-04   0.8105250463E-01   0.3843326102E-02   0.0000000000E+00   0.7647862190E-02
   0.4592586870E-01   0.1992448426E+00   0.1258466619E-04  -0.3733713839E-04   0.2516933239E-04  -0.7467427679E-04   0.8568232071E-01   0.3999268617E-02   0.0000000000E+00   0.9605558650E-02
   0.5659001546E-01   0.2066583879E+00   0.1506085440E-04  -0.3626637722E-04   0.3012170880E-04  -0.7253275443E-04   0.8371135383E-01   0.1882984937E-02   0.0000000000E+00   0.1002774797E-01
   0.4758288676E-01   0.2154571788E+00   0.1199905423E-04  -0.3827838807E-04   0.2399810845E-04  -0.7655677614E-04   0.7914422146E-01   0.1958547377E-02   0.0000000000E+00   0.8092960319E-02
   0.1782206609E-01   0.2002943136E+00   0.4799329905E-05  -0.4035314421E-04   0.9598659809E-05  -0.8070628843E-04   0.8323658806E-01   0.6906797486E-02   0.0000000000E+00   0.4518321810E-02
   0.1818406199E-01   0.2084725002E+00   0.4693830347E-05  -0.4083093787E-04   0.9387660694E-05  -0.8166187573E-04   0.7939053128E-01   0.5186860422E-02   0.0000000000E+00   0.4124573663E-02
   0.2702240126E-01   0.2001411331E+00   0.7304786491E-05  -0.3963662640E-04   0.1460957298E-04  -0.7927325281E-04   0.8391043608E-01   0.6213448361E-02   0.0000000000E+00   0.6413299683E-02
   0.2808052276E-01   0.2163748718E+00   0.6951920194E-05  -0.4059140111E-04   0.1390384039E-04  -0.8118280222E-04   0.7638589354E-01   0.3070666884E-02   0.0000000000E+00   0.5370866653E-02
   0.5823791417E-01   0.2322042871E+00   0.1326208931E-04  -0.3793364240E-04   0.2652417863E-04  -0.7586728481E-04   0.7396396288E-01   0.2816396235E-03   0.0000000000E+00   0.5982405754E-02
   0.5789451307E-01   0.2235096918E+00   0.1402698978E-04  -0.3734473867E-04   0.2805397955E-04  -0.7468947734E-04   0.7746571280E-01   0.7693447798E-03   0.0000000000E+00   0.7588222177E-02
   0.4837050835E-01   0.2325130190E+00   0.1084488324E-04  -0.3938601557E-04   0.2168976647E-04  -0.7877203113E-04   0.7156925333E-01   0.4824190591E-03   0.0000000000E+00   0.5171653962E-02
   0.3805939297E-01   0.2244611243E+00   0.8988522309E-05  -0.4011856746E-04   0.1797704462E-04  -0.8023713491E-04   0.7351200861E-01   0.1602193361E-02   0.0000000000E+00   0.5769777960E-02
   0.1556708568E+00   0.2499324789E+00   0.3843194725E-04  -0.2250703568E-04   0.7686389450E-04  -0.4501407137E-04   0.9765584194E-01   0.1734606647E-03   0.0000000000E+00   0.9839979844E-04
   0.1362077431E+00   0.2499232132E+00   0.3221104193E-04  -0.2559559332E-04   0.6442208385E-04  -0.5119118664E-04   0.9437162181E-01   0.1853307640E-03   0.0000000000E+00   0.1716081332E-03
   0.1459392279E+00   0.2499279808E+00   0.3529495860E-04  -0.2400641664E-04   0.7058991719E-04  -0.4801283328E-04   0.9602128208E-01   0.1325379955E-03   0.0000000000E+00   0.6734393568E-04
   0.1366464660E+00   0.2412409363E+00   0.3374166398E-04  -0.2471022275E-04   0.6748332797E-04  -0.4942044549E-04   0.9258774399E-01  -0.2113335843E-03   0.0000000000E+00   0.1687998563E-02
   0.1561236349E+00   0.2412379559E+00   0.3983962552E-04  -0.2160070814E-04   0.7967925103E-04  -0.4320141629E-04   0.9524005363E-01  -0.1991701506E-03   0.0000000000E+00   0.9625663157E-03
   0.1751344268E+00   0.2499405874E+00   0.4480994254E-04  -0.1980420957E-04   0.8961988508E-04  -0.3960841914E-04   0.9921929006E-01   0.1430754387E-03   0.0000000000E+00   0.3873820258E-04
   0.1760660395E+00   0.2324421538E+00   0.4730084122E-04  -0.1798639019E-04   0.9460168245E-04  -0.3597278038E-04   0.9434834171E-01  -0.3687996491E-03   0.0000000000E+00   0.6153737475E-03
   0.1654026026E+00   0.2499366884E+00   0.4160787951E-04  -0.2110385126E-04   0.8321575901E-04  -0.4220770252E-04   0.9844067263E-01   0.1191669941E-03   0.0000000000E+00   0.3524423901E-04
   0.1663211092E+00   0.2324929276E+00   0.4423505753E-04  -0.1929080361E-04   0.8847011506E-04  -0.3858160722E-04   0.9389950952E-01  -0.4542464646E-03   0.0000000000E+00   0.1157856119E-02
   0.1756002748E+00   0.2411913915E+00   0.4606925861E-04  -0.1888816033E-04   0.9213851723E-04  -0.3777632067E-04   0.9650815252E-01  -0.1674679956E-03   0.0000000000E+00   0.3328260470E-03
   0.2252528214E+00   0.0000000000E+00   0.8427579278E-04   0.0000000000E+00   0.1685515856E-03   0.0000000000E+00   0.3371316333E-01   0.9081462798E-02   0.0000000000E+00  -0.6066128797E-04
   0.2460929659E+00   0.0000000000E+00   0.8654296719E-04   0.0000000000E+00   0.1730859344E-03   0.0000000000E+00   0.3750806227E-01   0.1065451454E-01   0.0000000000E+00  -0.4090151939E-04
   0.2485061064E+00   0.1834227089E-01   0.8658814244E-04  -0.5233829700E-07   0.1731762849E-03  -0.1046765940E-06   0.3874068300E-01   0.1044572745E-01   0.0000000000E+00  -0.2816118568E-02
   0.2266357487E+00   0.9228437683E-02   0.8433890748E-04  -0.3616235894E-07   0.1686778150E-03  -0.7232471788E-07   0.3421802247E-01   0.8905301669E-02   0.0000000000E+00  -0.1866914485E-02
   0.2356728062E+00   0.0000000000E+00   0.8538005580E-04   0.0000000000E+00   0.1707601116E-03   0.0000000000E+00   0.3562216446E-01   0.9901332848E-02   0.0000000000E+00  -0.3598266139E-04
   0.2472997047E+00   0.9171147490E-02   0.8662155751E-04  -0.2215342821E-07   0.1732431150E-03  -0.4430685643E-07   0.3786979773E-01   0.1048778959E-01   0.0000000000E+00  -0.1416530754E-02
   0.2382620926E+00   0.1839956479E-01   0.8539551995E-04  -0.6510293801E-07   0.1707910399E-03  -0.1302058760E-06   0.3706980462E-01   0.9697919682E-02   0.0000000000E+00  -0.3229871423E-02
   0.1967208096E+00   0.1994771467E+00   0.5741452004E-04  -0.1247876935E-04   0.1148290401E-03  -0.2495753870E-04   0.8729178484E-01  -0.2202128519E-02   0.0000000000E+00  -0.1556237866E-02
   0.2157482948E+00   0.1983602331E+00   0.6305659802E-04  -0.1067462665E-04   0.1261131960E-03  -0.2134925330E-04   0.8587369816E-01  -0.1405274206E-02   0.0000000000E+00  -0.2682350463E-02
   0.2157261995E+00   0.2151014351E+00   0.6138382838E-04  -0.1220429665E-04   0.1227676568E-03  -0.2440859329E-04   0.8951043848E-01  -0.7274900938E-03   0.0000000000E+00  -0.1753538193E-02
   0.1963892699E+00   0.2155792213E+00   0.5552064088E-04  -0.1403357128E-04   0.1110412818E-03  -0.2806714255E-04   0.9047038045E-01  -0.1139854563E-02   0.0000000000E+00  -0.7756602650E-03
   0.2062346035E+00   0.1989188407E+00   0.6025016593E-04  -0.1152643768E-04   0.1205003319E-03  -0.2305287537E-04   0.8657584566E-01  -0.1817057414E-02   0.0000000000E+00  -0.2154483908E-02
   0.2157372145E+00   0.2067308355E+00   0.6220915937E-04  -0.1143650689E-04   0.1244183187E-03  -0.2287301378E-04   0.8766313377E-01  -0.1078558053E-02   0.0000000000E+00  -0.2195761682E-02
   0.2060577546E+00   0.2153404815E+00   0.5846151686E-04  -0.1306783950E-04   0.1169230337E-03  -0.2613567900E-04   0.8998648607E-01  -0.9416285061E-03   0.0000000000E+00  -0.1290235733E-02
   0.1965550180E+00   0.2075281900E+00   0.5646034748E-04  -0.1325666494E-04   0.1129206950E-03  -0.2651332989E-04   0.8883097382E-01  -0.1692307245E-02   0.0000000000E+00  -0.1142159622E-02
   0.1176059367E+00   0.2323552089E+00   0.2935423859E-04  -0.2726368870E-04   0.5870847718E-04  -0.5452737740E-04   0.8830884406E-01  -0.4473961736E-03   0.0000000000E+00   0.4562706116E-02
   0.1189769461E+00   0.2151714507E+00   0.3210536476E-04  -0.2541844959E-04   0.6421072953E-04  -0.5083689917E-04   0.8888306491E-01  -0.1955352691E-02   0.0000000000E+00   0.6794412938E-02
   0.1273453205E+00   0.2324570393E+00   0.3223518232E-04  -0.2551156557E-04   0.6447036464E-04  -0.5102313114E-04   0.8988321780E-01  -0.5354451101E-03   0.0000000000E+00   0.3759219134E-02
   0.1182915513E+00   0.2237632929E+00   0.3076644504E-04  -0.2635335608E-04   0.6153289008E-04  -0.5270671215E-04   0.8846161528E-01  -0.1245733970E-02   0.0000000000E+00   0.5692889592E-02
   0.1286527697E+00   0.2154592085E+00   0.3496423550E-04  -0.2367916897E-04   0.6992847100E-04  -0.4735833794E-04   0.8956941309E-01  -0.2112270656E-02   0.0000000000E+00   0.5598790830E-02
   0.2140618569E+00   0.2499530682E+00   0.5765764740E-04  -0.1564394414E-04   0.1153152948E-03  -0.3128788828E-04   0.9855300573E-01   0.6474380515E-04   0.0000000000E+00  -0.3372191921E-04
   0.1945981812E+00   0.2499474435E+00   0.5124439150E-04  -0.1751883195E-04   0.1024887830E-03  -0.3503766391E-04   0.9938869894E-01   0.1043365661E-03   0.0000000000E+00  -0.4950870024E-05
   0.1955954902E+00   0.2323719374E+00   0.5345105526E-04  -0.1570719546E-04   0.1069021105E-03  -0.3141439092E-04   0.9431790211E-01  -0.2703753235E-03   0.0000000000E+00  -0.3097099527E-03
   0.2150908537E+00   0.2322421696E+00   0.5956922842E-04  -0.1385214959E-04   0.1191384568E-03  -0.2770429918E-04   0.9360861661E-01  -0.1711315135E-03   0.0000000000E+00  -0.9449109593E-03
   0.2043300371E+00   0.2499504058E+00   0.5445703347E-04  -0.1653140861E-04   0.1089140669E-03  -0.3306281721E-04   0.9896860009E-01   0.6717949560E-04   0.0000000000E+00  -0.8575586716E-05
   0.1950968333E+00   0.2411597241E+00   0.5234709526E-04  -0.1660430491E-04   0.1046941905E-03  -0.3320860983E-04   0.9664574680E-01  -0.1246058558E-03   0.0000000000E+00  -0.1581727683E-03
   0.2053431891E+00   0.2323072074E+00   0.5651601812E-04  -0.1472854157E-04   0.1130320362E-03  -0.2945708314E-04   0.9395673810E-01  -0.2385621664E-03   0.0000000000E+00  -0.6366817773E-03
   0.2145763222E+00   0.2410976405E+00   0.5860239023E-04  -0.1473848835E-04   0.1172047805E-03  -0.2947697670E-04   0.9594472150E-01  -0.8040278349E-04   0.0000000000E+00  -0.4943480850E-03
   0.2345310523E+00   0.2319164658E+00   0.6562208428E-04  -0.1237006004E-04   0.1312441686E-03  -0.2474012008E-04   0.9244519644E-01  -0.8404532773E-04   0.0000000000E+00  -0.1316926333E-02
   0.2539116787E+00   0.2317903612E+00   0.7155689470E-04  -0.1124626943E-04   0.1431137894E-03  -0.2249253887E-04   0.9115505119E-01  -0.7921432613E-05   0.0000000000E+00  -0.1439463566E-02
   0.2529884858E+00   0.2499610365E+00   0.7023360568E-04  -0.1298784909E-04   0.1404672114E-03  -0.2597569817E-04   0.9535677093E-01  -0.1025098839E-05   0.0000000000E+00  -0.5541184750E-04
   0.2335253254E+00   0.2499575554E+00   0.6399714081E-04  -0.1414820403E-04   0.1279942816E-03  -0.2829640805E-04   0.9709556419E-01   0.2901345058E-04   0.0000000000E+00  -0.4998384871E-04
   0.2442214040E+00   0.2318535224E+00   0.6860001364E-04  -0.1176954758E-04   0.1372000273E-03  -0.2353909515E-04   0.9179972616E-01  -0.4278304594E-04   0.0000000000E+00  -0.1367533679E-02
   0.2534500190E+00   0.2408757282E+00   0.7087434894E-04  -0.1210727626E-04   0.1417486979E-03  -0.2421455253E-04   0.9324666725E-01  -0.4369381252E-05   0.0000000000E+00  -0.7547832383E-03
   0.2432569384E+00   0.2499594129E+00   0.6712879815E-04  -0.1352903665E-04   0.1342575963E-03  -0.2705807331E-04   0.9622384302E-01   0.1394745009E-04   0.0000000000E+00  -0.2741221041E-04
   0.2340281350E+00   0.2409370336E+00   0.6479167198E-04  -0.1324914915E-04   0.1295833440E-03  -0.2649829830E-04   0.9470181602E-01  -0.4045381270E-04   0.0000000000E+00  -0.6907053672E-03
   0.2635817540E+00   0.2317124308E+00   0.7448633241E-04  -0.1079340586E-04   0.1489726648E-03  -0.2158681172E-04   0.9051119597E-01   0.3168740259E-04   0.0000000000E+00  -0.1390987865E-02
   0.2627199155E+00   0.2499624437E+00   0.7330915048E-04  -0.1251876480E-04   0.1466183010E-03  -0.2503752960E-04   0.9448018670E-01  -0.8120795521E-05   0.0000000000E+00  -0.2879018499E-04
   0.3113760313E+00   0.2499667962E+00   0.8830311412E-04  -0.1106792143E-04   0.1766062282E-03  -0.2213584287E-04   0.9085209284E-01  -0.5660708396E-04   0.0000000000E+00  -0.3127499551E-04
   0.3117688961E+00   0.2312440494E+00   0.8879337197E-04  -0.9390548949E-05   0.1775867439E-03  -0.1878109790E-04   0.8782592888E-01   0.1317685722E-03   0.0000000000E+00  -0.8308951328E-03
   0.3211070495E+00   0.2499672204E+00   0.9124150480E-04  -0.1092653375E-04   0.1824830096E-03  -0.2185306750E-04   0.9047195511E-01  -0.4812803179E-04   0.0000000000E+00  -0.1394658343E-04
   0.3115724385E+00   0.2406054480E+00   0.8853482225E-04  -0.1022065569E-04   0.1770696445E-03  -0.2044131137E-04   0.8944592924E-01   0.6414837059E-04   0.0000000000E+00  -0.4348885436E-03
   0.3214203726E+00   0.2311317460E+00   0.9161253749E-04  -0.9249008130E-05   0.1832250750E-03  -0.1849801626E-04   0.8754001274E-01   0.1581313328E-03   0.0000000000E+00  -0.6260564824E-03
   0.5568924447E-01   0.8306693287E-01   0.4407358938E-04  -0.2667554343E-04   0.8814717875E-04  -0.5335108687E-04   0.8901432778E-01   0.4008948262E-01   0.0000000000E+00  -0.5728652994E-01
   0.7205526910E-01   0.9407524472E-01   0.4178163181E-04  -0.2195782523E-04   0.8356326363E-04  -0.4391565045E-04   0.9548208950E-01   0.5045044689E-02   0.0000000000E+00  -0.2247258697E-01
   0.6208553900E-01   0.1069105283E+00   0.3247703368E-04  -0.2595988479E-04   0.6495406735E-04  -0.5191976958E-04   0.1121365634E+00   0.5794598563E-02   0.0000000000E+00  -0.1408041702E-01
   0.3835992255E-01   0.9229621830E-01   0.3052664905E-04  -0.3057786628E-04   0.6105329810E-04  -0.6115573256E-04   0.1539903851E+00   0.2649979711E-01   0.0000000000E+00  -0.5849551057E-01
   0.6387064124E-01   0.8857151160E-01   0.4238971493E-04  -0.2417700036E-04   0.8477942987E-04  -0.4835400072E-04   0.8664769462E-01   0.1514677175E-01   0.0000000000E+00  -0.3499792282E-01
   0.6707016441E-01   0.1004928553E+00   0.3704947138E-04  -0.2396923567E-04   0.7409894277E-04  -0.4793847133E-04   0.1036008233E+00   0.5115901191E-02   0.0000000000E+00  -0.1861801822E-01
   0.5022230274E-01   0.9960260053E-01   0.3135918054E-04  -0.2852642214E-04   0.6271836109E-04  -0.5705284429E-04   0.1272864891E+00   0.1498143122E-01   0.0000000000E+00  -0.3335655018E-01
   0.4725205389E-01   0.8810602185E-01   0.3745982848E-04  -0.2870191523E-04   0.7491965696E-04  -0.5740383046E-04   0.1237902023E+00   0.3662095865E-01   0.0000000000E+00  -0.6037302720E-01
   0.0000000000E+00   0.1998773456E+00   0.0000000000E+00  -0.4088581351E-04   0.0000000000E+00  -0.8177162702E-04   0.8303005095E-01   0.7668283870E-02   0.0000000000E+00   0.4757771145E-04
   0.8911027605E-02   0.2000854090E+00   0.2397854882E-05  -0.4075700222E-04   0.4795709765E-05  -0.8151400445E-04   0.8318772350E-01   0.7501347163E-02   0.0000000000E+00   0.2248027268E-02
   0.0000000000E+00   0.2082092187E+00   0.0000000000E+00  -0.4137477776E-04   0.0000000000E+00  -0.8274955553E-04   0.7901621507E-01   0.5751591450E-02   0.0000000000E+00   0.4496392379E-04
   0.0000000000E+00   0.1832133727E+00   0.0000000000E+00  -0.3998808548E-04   0.0000000000E+00  -0.7997617096E-04   0.9120232259E-01   0.1230310454E-01   0.0000000000E+00   0.4657920745E-04
   0.8553205284E-02   0.1836098413E+00   0.2491364768E-05  -0.3986624514E-04   0.4982729536E-05  -0.7973249029E-04   0.9116807273E-01   0.1196961813E-01   0.0000000000E+00   0.2424603142E-02
   0.1746424033E-01   0.1921507639E+00   0.4891711087E-05  -0.3989803631E-04   0.9783422173E-05  -0.7979607262E-04   0.8706927117E-01   0.8981489842E-02   0.0000000000E+00   0.4659673090E-02
   0.0000000000E+00   0.1915453966E+00   0.0000000000E+00  -0.4042212842E-04   0.0000000000E+00  -0.8084425684E-04   0.8707429218E-01   0.9958620628E-02   0.0000000000E+00   0.4672625560E-04
   0.3656203110E-01   0.1167685900E+00   0.1846439991E-04  -0.3294200214E-04   0.3692879982E-04  -0.6588400429E-04   0.1397618886E+00   0.1502524084E-01   0.0000000000E+00  -0.6888695335E-02
   0.2909830911E-01   0.9559802295E-01   0.2328043612E-04  -0.3200411501E-04   0.4656087225E-04  -0.6400823002E-04   0.1924197723E+00   0.1846004310E-01   0.0000000000E+00  -0.5391574610E-01
   0.3745719177E-01   0.1045325804E+00   0.2323382236E-04  -0.3170120231E-04   0.4646764472E-04  -0.6340240463E-04   0.1490376163E+00   0.1979661481E-01   0.0000000000E+00  -0.3058110474E-01
   0.2787387238E-01   0.1164759681E+00   0.1449466050E-04  -0.3444462550E-04   0.2898932100E-04  -0.6888925099E-04   0.1496571648E+00   0.1900474488E-01   0.0000000000E+00  -0.7743870820E-02
   0.0000000000E+00   0.1748812583E+00   0.0000000000E+00  -0.3958456414E-04   0.0000000000E+00  -0.7916912827E-04   0.9563682527E-01   0.1467022048E-01   0.0000000000E+00   0.6770605367E-04
   0.2609518183E-01   0.1348807271E+00   0.1064504345E-04  -0.3601931466E-04   0.2129008691E-04  -0.7203862933E-04   0.1260834321E+00   0.2021524331E-01   0.0000000000E+00   0.3077043243E-02
   0.3538323031E-01   0.1920772533E+00   0.9975769867E-05  -0.3823488591E-04   0.1995153973E-04  -0.7646977182E-04   0.8794195930E-01   0.6678179667E-02   0.0000000000E+00   0.8565082268E-02
   0.2669337210E+00   0.0000000000E+00   0.8901331706E-04   0.0000000000E+00   0.1780266341E-03   0.0000000000E+00   0.4036979248E-01   0.1176982961E-01   0.0000000000E+00  -0.2751295123E-04
   0.2688931954E+00   0.1829140680E-01   0.8908345493E-04  -0.3460008908E-07   0.1781669099E-03  -0.6920017817E-07   0.4129530394E-01   0.1155964783E-01   0.0000000000E+00  -0.2093760835E-02
   0.2679135826E+00   0.9145713906E-02   0.8908987389E-04  -0.1380467145E-07   0.1781797478E-03  -0.2760934290E-07   0.4062134092E-01   0.1161061507E-01   0.0000000000E+00  -0.1052716370E-02
   0.2586995933E+00   0.1831684210E-01   0.8781675223E-04  -0.4240150900E-07   0.1756335045E-03  -0.8480301800E-07   0.4002400792E-01   0.1102339344E-01   0.0000000000E+00  -0.2432458709E-02
   0.2565132917E+00   0.0000000000E+00   0.8775590622E-04   0.0000000000E+00   0.1755118124E-03   0.0000000000E+00   0.3894384898E-01   0.1123029696E-01   0.0000000000E+00  -0.2402654624E-04
   0.2367689732E+00   0.7431306099E-01   0.8152339817E-04  -0.1045036370E-05   0.1630467963E-03  -0.2090072740E-05   0.4964552356E-01   0.4813476234E-02   0.0000000000E+00  -0.9445945334E-02
   0.2554702742E+00   0.7383542306E-01   0.8456839530E-04  -0.8227146016E-06   0.1691367906E-03  -0.1645429203E-05   0.5024977552E-01   0.6757860938E-02   0.0000000000E+00  -0.7572865135E-02
   0.2461196282E+00   0.7407426824E-01   0.8304738451E-04  -0.9239213914E-06   0.1660947690E-03  -0.1847842783E-05   0.4997522045E-01   0.5853225260E-02   0.0000000000E+00  -0.8464781483E-02
   0.2564631321E+00   0.8305280107E-01   0.8403004417E-04  -0.1092108806E-05   0.1680600883E-03  -0.2184217611E-05   0.5278667886E-01   0.5970768721E-02   0.0000000000E+00  -0.7673440403E-02
   0.2381948894E+00   0.8349468693E-01   0.8087580381E-04  -0.1358055490E-05   0.1617516076E-03  -0.2716110981E-05   0.5259425551E-01   0.4059930735E-02   0.0000000000E+00  -0.9433302824E-02
   0.3106184391E+00   0.3712671364E-01   0.9432737200E-04  -0.8282160945E-07   0.1886547440E-03  -0.1656432189E-06   0.4613361819E-01   0.1219463560E-01   0.0000000000E+00  -0.1792528884E-02
   0.2907147571E+00   0.3677694334E-01   0.9154837334E-04  -0.9865327870E-07   0.1830967467E-03  -0.1973065574E-06   0.4504361810E-01   0.1164607916E-01   0.0000000000E+00  -0.2756251846E-02
   0.3006665894E+00   0.3695183180E-01   0.9292981079E-04  -0.8963269513E-07   0.1858596216E-03  -0.1792653903E-06   0.4559334342E-01   0.1193648733E-01   0.0000000000E+00  -0.2261640691E-02
   0.2899928148E+00   0.2752055011E-01   0.9165392828E-04  -0.5163103195E-07   0.1833078566E-03  -0.1032620639E-06   0.4394147854E-01   0.1194904034E-01   0.0000000000E+00  -0.2123218311E-02
   0.3101447255E+00   0.2776648465E-01   0.9439482644E-04  -0.4101755298E-07   0.1887896529E-03  -0.8203510596E-07   0.4514424545E-01   0.1248446449E-01   0.0000000000E+00  -0.1377802286E-02
   0.3502999940E+00   0.6730660907E-01   0.1000000000E-03  -0.3622115101E-06   0.2000000000E-03  -0.7244230201E-06   0.5117097155E-01   0.1080744432E-01   0.0000000000E+00  -0.9985264967E-06
   0.3110228246E+00   0.4658963503E-01   0.9421720715E-04  -0.1490888357E-06   0.1884344143E-03  -0.2981776714E-06   0.4731723661E-01   0.1162461369E-01   0.0000000000E+00  -0.2117739650E-02
   0.3205578628E+00   0.3740476361E-01   0.9573494358E-04  -0.7849814336E-07   0.1914698872E-03  -0.1569962867E-06   0.4647472864E-01   0.1235710916E-01   0.0000000000E+00  -0.1336134646E-02
   0.3198626264E+00   0.1856035274E-01   0.9581180433E-04  -0.1522056647E-07   0.1916236087E-03  -0.3044113294E-07   0.4485619701E-01   0.1301532087E-01   0.0000000000E+00  -0.7155020533E-03
   0.3190373029E+00   0.0000000000E+00   0.9575963043E-04   0.0000000000E+00   0.1915192609E-03   0.0000000000E+00   0.4428974163E-01   0.1322866046E-01   0.0000000000E+00  -0.6706279065E-05
   0.3502999940E+00   0.2115161390E+00   0.1000000000E-03  -0.7441662597E-05   0.2000000000E-03  -0.1488332519E-04   0.8347839803E-01   0.7736789595E-03   0.0000000000E+00  -0.4033555088E-05
   0.3311924934E+00   0.2119582298E+00   0.9469181051E-04  -0.7544734750E-05   0.1893836210E-03  -0.1508946950E-04   0.8370373170E-01   0.7298665213E-03   0.0000000000E+00  -0.7406637989E-03
   0.3311278793E+00   0.1926835026E+00   0.9494944003E-04  -0.6045137807E-05   0.1898988801E-03  -0.1209027561E-04   0.7963193411E-01   0.1584252219E-02   0.0000000000E+00  -0.9897572193E-03
   0.3502999940E+00   0.1922898360E+00   0.1000000000E-03  -0.5953345895E-05   0.2000000000E-03  -0.1190669179E-04   0.7943282368E-01   0.1661124193E-02   0.0000000000E+00  -0.4259274978E-05
   0.3407462666E+00   0.2117372283E+00   0.9734853499E-04  -0.7476227610E-05   0.1946970700E-03  -0.1495245522E-04   0.8359627824E-01   0.7710126937E-03   0.0000000000E+00  -0.3698292802E-03
   0.3311601745E+00   0.2023209241E+00   0.9481648419E-04  -0.6778303725E-05   0.1896329684E-03  -0.1355660745E-04   0.8173468827E-01   0.1178504278E-02   0.0000000000E+00  -0.8624509642E-03
   0.3407139297E+00   0.1924867238E+00   0.9747723800E-04  -0.5983415428E-05   0.1949544760E-03  -0.1196683086E-04   0.7953970774E-01   0.1647093399E-02   0.0000000000E+00  -0.4947683298E-03
   0.3502999940E+00   0.2019030298E+00   0.1000000000E-03  -0.6680717113E-05   0.2000000000E-03  -0.1336143423E-04   0.8152361219E-01   0.1239354265E-02   0.0000000000E+00  -0.3503513424E-05
   0.3502999940E+00   0.2211291561E+00   0.1000000000E-03  -0.8232978844E-05   0.2000000000E-03  -0.1646595769E-04   0.8534345420E-01   0.4989759120E-03   0.0000000000E+00  -0.4624486002E-05
   0.3311321402E+00   0.2214888091E+00   0.9455174038E-04  -0.8332977997E-05   0.1891034808E-03  -0.1666595599E-04   0.8556699645E-01   0.4703101478E-03   0.0000000000E+00  -0.5869022246E-03
   0.3502999940E+00   0.1826765321E+00   0.1000000000E-03  -0.5262290988E-05   0.2000000000E-03  -0.1052458198E-04   0.7728555517E-01   0.2230952238E-02   0.0000000000E+00  -0.3283762584E-05
   0.3310958479E+00   0.1829919526E+00   0.9509030219E-04  -0.5344138319E-05   0.1901806044E-03  -0.1068827664E-04   0.7746078579E-01   0.2140747053E-02   0.0000000000E+00  -0.1092736248E-02
   0.2928145381E+00   0.2126595110E+00   0.8392837374E-04  -0.8179671672E-05   0.1678567475E-03  -0.1635934334E-04   0.8491620313E-01   0.4841752244E-03   0.0000000000E+00  -0.1985716804E-02
   0.2737393942E+00   0.2131170519E+00   0.7848839609E-04  -0.8770691205E-05   0.1569767922E-03  -0.1754138241E-04   0.8587976844E-01   0.2722203262E-03   0.0000000000E+00  -0.2367213261E-02
   0.2735941164E+00   0.1942508324E+00   0.7953413473E-04  -0.7223542376E-05   0.1590682695E-03  -0.1444708475E-04   0.8164552371E-01   0.6355145667E-03   0.0000000000E+00  -0.3244506482E-02
   0.2926730847E+00   0.1934268638E+00   0.8471924016E-04  -0.6640391464E-05   0.1694384803E-03  -0.1328078293E-04   0.8069340605E-01   0.1084693183E-02   0.0000000000E+00  -0.2695438038E-02
   0.2832769926E+00   0.2128883581E+00   0.8121720689E-04  -0.8449642082E-05   0.1624344138E-03  -0.1689928416E-04   0.8540273519E-01   0.3963386348E-03   0.0000000000E+00  -0.2172973196E-02
   0.2736667148E+00   0.2036839801E+00   0.7899761390E-04  -0.7984288712E-05   0.1579952278E-03  -0.1596857742E-04   0.8380030987E-01   0.4656910850E-03   0.0000000000E+00  -0.2793761448E-02
   0.2831336303E+00   0.1938389149E+00   0.8213676012E-04  -0.6907371276E-05   0.1642735202E-03  -0.1381474255E-04   0.8117385133E-01   0.8790228957E-03   0.0000000000E+00  -0.2974503604E-02
   0.2927437770E+00   0.2030432397E+00   0.8431233718E-04  -0.7395095571E-05   0.1686246744E-03  -0.1479019114E-04   0.8285746505E-01   0.8019348600E-03   0.0000000000E+00  -0.2331191049E-02
   0.1946378054E+00   0.5816667440E-01   0.7706379940E-04  -0.1147668126E-05   0.1541275988E-03  -0.2295336251E-05   0.4090031653E-01   0.3957251067E-03   0.0000000000E+00  -0.1348764683E-01
   0.2143337101E+00   0.5661125598E-01   0.7994371506E-04  -0.7757075877E-06   0.1598874301E-03  -0.1551415175E-05   0.4235448823E-01   0.3890305561E-02   0.0000000000E+00  -0.1081732996E-01
   0.1926665342E+00   0.4827382225E-01   0.7809306751E-04  -0.8288836252E-06   0.1561861350E-03  -0.1657767250E-05   0.3647679422E-01   0.1302288470E-02   0.0000000000E+00  -0.1226031743E-01
   0.2125609955E+00   0.4712177514E-01   0.8065982560E-04  -0.5448873357E-06   0.1613196512E-03  -0.1089774671E-05   0.3898566507E-01   0.4673317863E-02   0.0000000000E+00  -0.9737460672E-02
   0.2044857692E+00   0.5738903075E-01   0.7850773989E-04  -0.9404493223E-06   0.1570154798E-03  -0.1880898645E-05   0.4167375280E-01   0.2237735877E-02   0.0000000000E+00  -0.1205428880E-01
   0.7326736573E-01   0.1305150230E+00   0.2946547609E-04  -0.2567999378E-04   0.5893095219E-04  -0.5135998755E-04   0.1077408611E+00  -0.3784582738E-02   0.0000000000E+00   0.2497795127E-02
   0.5556213500E-01   0.1223877461E+00   0.2483779944E-04  -0.2923795028E-04   0.4967559889E-04  -0.5847590055E-04   0.1163530773E+00   0.5435828036E-02   0.0000000000E+00  -0.2023168309E-02
   0.8088432163E-01   0.1172098304E+00   0.3570040975E-04  -0.2208552815E-04   0.7140081950E-04  -0.4417105630E-04   0.1032373169E+00  -0.7410127115E-02   0.0000000000E+00  -0.4616026389E-02
   0.6441483556E-01   0.1264514625E+00   0.2717942122E-04  -0.2743316672E-04   0.5435884244E-04  -0.5486633343E-04   0.1119945081E+00   0.5869431018E-03   0.0000000000E+00   0.4162747903E-03
   0.5882323483E-01   0.1146490844E+00   0.2845607749E-04  -0.2761785755E-04   0.5691215499E-04  -0.5523571509E-04   0.1189689597E+00   0.6377985544E-02   0.0000000000E+00  -0.7325712361E-02
   0.7148474221E-01   0.1120603794E+00   0.3402603713E-04  -0.2395718665E-04   0.6805207426E-04  -0.4791437330E-04   0.1067619851E+00  -0.3179663902E-02   0.0000000000E+00  -0.8626833442E-02
   0.7707552050E-01   0.1238623455E+00   0.3247520068E-04  -0.2390984202E-04   0.6495040136E-04  -0.4781968403E-04   0.1048122422E+00  -0.5620113646E-02   0.0000000000E+00  -0.1126847322E-02
   0.5836659379E-01   0.2498825635E+00   0.1108672857E-04  -0.3914550578E-04   0.2217345714E-04  -0.7829101157E-04   0.6593080855E-01  -0.9926502339E-04   0.0000000000E+00   0.3530259710E-03
   0.6809543746E-01   0.2498871011E+00   0.1329408547E-04  -0.3763297073E-04   0.2658817095E-04  -0.7526594145E-04   0.7009614262E-01  -0.2682360526E-04   0.0000000000E+00   0.1868528028E-03
   0.5830254159E-01   0.2410433883E+00   0.1227029698E-04  -0.3855456731E-04   0.2454059396E-04  -0.7710913462E-04   0.7013170425E-01   0.1241361184E-03   0.0000000000E+00   0.3208379300E-02
   0.6814712176E-01   0.2319882942E+00   0.1577001873E-04  -0.3631460406E-04   0.3154003745E-04  -0.7262920811E-04   0.7659409359E-01   0.1088608221E-03   0.0000000000E+00   0.6078004900E-02
   0.4606268388E-01   0.1195778143E+00   0.2185199178E-04  -0.3120656079E-04   0.4370398357E-04  -0.6241312158E-04   0.1281156324E+00   0.1132982885E-01   0.0000000000E+00  -0.4538181558E-02
   0.7825017767E-01   0.2133215794E+00   0.2050662295E-04  -0.3301686029E-04   0.4101324590E-04  -0.6603372058E-04   0.8432629901E-01  -0.2487642872E-03   0.0000000000E+00   0.9968356699E-02
   0.7806371549E-01   0.1933405368E+00   0.2240522949E-04  -0.3127874432E-04   0.4481045899E-04  -0.6255748865E-04   0.8987183754E-01  -0.7874810559E-03   0.0000000000E+00   0.1169438113E-01
   0.6790037533E-01   0.2140681425E+00   0.1755881037E-04  -0.3494882157E-04   0.3511762074E-04  -0.6989764314E-04   0.8256518078E-01   0.4999919492E-03   0.0000000000E+00   0.9542960475E-02
   0.6684623318E-01   0.1959208123E+00   0.1884139221E-04  -0.3363122216E-04   0.3768278442E-04  -0.6726244432E-04   0.8849352046E-01   0.1037667835E-02   0.0000000000E+00   0.1136769895E-01
   0.7815699249E-01   0.2033309969E+00   0.2147246263E-04  -0.3216570239E-04   0.4294492527E-04  -0.6433140478E-04   0.8710518164E-01  -0.5258194437E-03   0.0000000000E+00   0.1084203869E-01
   0.4863814585E-01   0.2498784908E+00   0.9011316468E-05  -0.4050305125E-04   0.1802263294E-04  -0.8100610251E-04   0.6225000088E-01  -0.1216287995E-03   0.0000000000E+00   0.1549246992E-03
   0.3124660311E+00   0.1041641280E+00   0.9290571006E-04  -0.1314655417E-05   0.1858114201E-03  -0.2629310833E-05   0.5859288048E-01   0.7416211406E-02   0.0000000000E+00  -0.3081352691E-02
   0.1769052005E+00   0.2157507614E+00   0.4958616847E-04  -0.1627954285E-04   0.9917233695E-04  -0.3255908570E-04   0.9100285742E-01  -0.1558433907E-02   0.0000000000E+00   0.6525530542E-03
   0.1764856277E+00   0.2240964546E+00   0.4844857679E-04  -0.1713378948E-04   0.9689715359E-04  -0.3426757897E-04   0.9252337203E-01  -0.1011810236E-02   0.0000000000E+00   0.6547644566E-03
   0.1866472584E+00   0.2156651595E+00   0.5255879637E-04  -0.1510050636E-04   0.1051175927E-03  -0.3020101272E-04   0.9072899295E-01  -0.1373379519E-02   0.0000000000E+00  -0.1055502290E-03
   0.1959923637E+00   0.2239755792E+00   0.5448289094E-04  -0.1486793510E-04   0.1089657819E-03  -0.2973587020E-04   0.9227724006E-01  -0.7425639903E-03   0.0000000000E+00  -0.5244471610E-03
   0.1858307726E+00   0.2324072022E+00   0.5037619247E-04  -0.1679193780E-04   0.1007523849E-03  -0.3358387561E-04   0.9432303576E-01  -0.3511399906E-03   0.0000000000E+00   0.1251313482E-03
   0.3117825192E+00   0.1537188426E+00   0.9109905144E-04  -0.3621453003E-05   0.1821981029E-03  -0.7242906005E-05   0.7074143347E-01   0.3607337513E-02   0.0000000000E+00  -0.2705836668E-02
   0.3214194478E+00   0.1537779271E+00   0.9333093468E-04  -0.3536646780E-05   0.1866618694E-03  -0.7073293560E-05   0.7065038439E-01   0.3822331593E-02   0.0000000000E+00  -0.2039155889E-02
   0.3119279675E+00   0.1437525174E+00   0.9147117056E-04  -0.3058880925E-05   0.1829423411E-03  -0.6117761851E-05   0.6828085449E-01   0.4323106611E-02   0.0000000000E+00  -0.2836619570E-02
   0.3117680238E+00   0.1734235193E+00   0.9043959700E-04  -0.4865914281E-05   0.1808791940E-03  -0.9731828562E-05   0.7551488868E-01   0.2390651707E-02   0.0000000000E+00  -0.2342506919E-02
   0.3214159535E+00   0.1733619422E+00   0.9284182231E-04  -0.4758278992E-05   0.1856836446E-03  -0.9516557984E-05   0.7536668102E-01   0.2563817780E-02   0.0000000000E+00  -0.1770410406E-02
   0.3117752612E+00   0.1635712391E+00   0.9076605481E-04  -0.4221951722E-05   0.1815321096E-03  -0.8443903445E-05   0.7315387666E-01   0.3005725213E-02   0.0000000000E+00  -0.2520531977E-02
   0.2237936314E+00   0.2499554465E+00   0.6083847918E-04  -0.1485115747E-04   0.1216769584E-03  -0.2970231494E-04   0.9782152635E-01   0.3941403850E-04   0.0000000000E+00  -0.2038618277E-04
   0.2248109897E+00   0.2320794536E+00   0.6260557279E-04  -0.1306581004E-04   0.1252111456E-03  -0.2613162007E-04   0.9302321119E-01  -0.1345054885E-03   0.0000000000E+00  -0.1127069050E-02
   0.2790818850E+00   0.1827775741E-01   0.9038165367E-04  -0.2839540700E-07   0.1807633073E-03  -0.5679081399E-07   0.4223758764E-01   0.1196508005E-01   0.0000000000E+00  -0.1775391935E-02
   0.2773542616E+00   0.0000000000E+00   0.9030819613E-04   0.0000000000E+00   0.1806163923E-03   0.0000000000E+00   0.4141483394E-01   0.1217234759E-01   0.0000000000E+00  -0.1563922478E-04
   0.2926631832E+00   0.2220599415E+00   0.8351471812E-04  -0.8978488572E-05   0.1670294362E-03  -0.1795697714E-04   0.8688220169E-01   0.3116980806E-03   0.0000000000E+00  -0.1565215378E-02
   0.2734955348E+00   0.2223757192E+00   0.7792625369E-04  -0.9576916848E-05   0.1558525074E-03  -0.1915383370E-04   0.8790800461E-01   0.1748594446E-03   0.0000000000E+00  -0.1862197987E-02
   0.1167454570E+00   0.2499130457E+00   0.2626334256E-04  -0.2898476747E-04   0.5252668512E-04  -0.5796953493E-04   0.8921648102E-01   0.1712898418E-03   0.0000000000E+00   0.2522827705E-03
   0.1264764813E+00   0.2499182207E+00   0.2919610475E-04  -0.2725976589E-04   0.5839220951E-04  -0.5451953177E-04   0.9180652246E-01   0.1292952040E-03   0.0000000000E+00   0.1050616268E-03
   0.1171759140E+00   0.2411341257E+00   0.2788233854E-04  -0.2812710286E-04   0.5576467707E-04  -0.5625420572E-04   0.8846004167E-01  -0.1939004258E-03   0.0000000000E+00   0.2440543868E-02
   0.7087754251E-01   0.7064478462E-01   0.5562037015E-04  -0.2196559485E-04   0.1112407403E-03  -0.4393118970E-04   0.3149845528E-01   0.2803704176E-01   0.0000000000E+00  -0.2798255525E-01
   0.8404965427E-01   0.7961365960E-01   0.5223262167E-04  -0.1710280002E-04   0.1044652433E-03  -0.3420560005E-04   0.6187861541E-01  -0.3745289291E-02   0.0000000000E+00  -0.2233409266E-01
   0.7746239616E-01   0.7513023661E-01   0.5352698727E-04  -0.1919602922E-04   0.1070539745E-03  -0.3839205844E-04   0.4761829828E-01   0.1008462738E-01   0.0000000000E+00  -0.2525506296E-01
   0.7805276154E-01   0.8684445279E-01   0.4710831404E-04  -0.1953010481E-04   0.9421662808E-04  -0.3906020962E-04   0.7779416641E-01   0.1186190587E-02   0.0000000000E+00  -0.2263176500E-01
   0.6358964498E-01   0.7722784349E-01   0.5010435866E-04  -0.2440140356E-04   0.1002087173E-03  -0.4880280712E-04   0.5786931499E-01   0.3621516959E-01   0.0000000000E+00  -0.4435758367E-01
   0.2351401057E+00   0.2142788307E+00   0.6721589192E-04  -0.1072444319E-04   0.1344317838E-03  -0.2144888638E-04   0.8826866298E-01  -0.3456753934E-03   0.0000000000E+00  -0.2324968444E-02
   0.2154084984E+00   0.2236718258E+00   0.6046712929E-04  -0.1302305979E-04   0.1209342586E-03  -0.2604611959E-04   0.9148340512E-01  -0.4731064116E-03   0.0000000000E+00  -0.1334095968E-02
   0.2254331961E+00   0.2146902695E+00   0.6431202288E-04  -0.1141884130E-04   0.1286240458E-03  -0.2283768259E-04   0.8888912192E-01  -0.5341467171E-03   0.0000000000E+00  -0.2052349275E-02
   0.2348355385E+00   0.2230976630E+00   0.6640551175E-04  -0.1153967208E-04   0.1328110235E-03  -0.2307934417E-04   0.9032131388E-01  -0.2252425611E-03   0.0000000000E+00  -0.1808591415E-02
   0.1848662904E+00   0.2499441739E+00   0.4802512249E-04  -0.1860868385E-04   0.9605024498E-04  -0.3721736770E-04   0.9930373112E-01   0.9522393593E-04   0.0000000000E+00   0.9591871286E-05
   0.1775942556E+00   0.1998695444E+00   0.5172054959E-04  -0.1464753983E-04   0.1034410992E-03  -0.2929507965E-04   0.8844369868E-01  -0.3021293048E-02   0.0000000000E+00   0.7904556027E-04
   0.1586618265E+00   0.1997358814E+00   0.4606915057E-04  -0.1718552952E-04   0.9213830115E-04  -0.3437105903E-04   0.8929653514E-01  -0.3732773527E-02   0.0000000000E+00   0.2185594674E-02
   0.1598269238E+00   0.1838649225E+00   0.4848991671E-04  -0.1536281833E-04   0.9697983341E-04  -0.3072563665E-04   0.8773292675E-01  -0.5728482494E-02   0.0000000000E+00   0.9755729736E-03
   0.1779732998E+00   0.1845481321E+00   0.5374828037E-04  -0.1307096475E-04   0.1074965607E-03  -0.2614192950E-04   0.8613363545E-01  -0.4556112574E-02   0.0000000000E+00  -0.1067394656E-02
   0.1681280654E+00   0.1998028868E+00   0.4890314475E-04  -0.1586106119E-04   0.9780628949E-04  -0.3172212238E-04   0.8885556435E-01  -0.3418856038E-02   0.0000000000E+00   0.1068669833E-02
   0.1592443355E+00   0.1918003820E+00   0.4726883336E-04  -0.1628331780E-04   0.9453766673E-04  -0.3256663560E-04   0.8853611637E-01  -0.4715821582E-02   0.0000000000E+00   0.1611635282E-02
   0.1689001555E+00   0.1842066833E+00   0.5113350698E-04  -0.1416489799E-04   0.1022670140E-03  -0.2832979598E-04   0.8692254755E-01  -0.5176808070E-02   0.0000000000E+00  -0.1027256222E-03
   0.1777837397E+00   0.1922088234E+00   0.5272424180E-04  -0.1386419870E-04   0.1054484836E-03  -0.2772839739E-04   0.8729322080E-01  -0.3790956436E-02   0.0000000000E+00  -0.4668787151E-03
   0.2545175093E+00   0.2136895440E+00   0.7292077428E-04  -0.9603669008E-05   0.1458415486E-03  -0.1920733802E-04   0.8703172691E-01  -0.4715131105E-05   0.0000000000E+00  -0.2503357031E-02
   0.2542145327E+00   0.2227399808E+00   0.7222356669E-04  -0.1041538973E-04   0.1444471334E-03  -0.2083077946E-04   0.8909577833E-01  -0.4402683121E-05   0.0000000000E+00  -0.1962222645E-02
   0.2641284989E+00   0.2134033848E+00   0.7571531221E-04  -0.9155746875E-05   0.1514306244E-03  -0.1831149375E-04   0.8645949399E-01   0.1481904003E-03   0.0000000000E+00  -0.2434959903E-02
   0.3119794689E+00   0.2123091838E+00   0.8932629273E-04  -0.7782736175E-05   0.1786525855E-03  -0.1556547235E-04   0.8418450160E-01   0.6355624484E-03   0.0000000000E+00  -0.1421654651E-02
   0.3119349568E+00   0.1930143667E+00   0.8986692825E-04  -0.6264095692E-05   0.1797338565E-03  -0.1252819138E-04   0.8004185462E-01   0.1396794320E-02   0.0000000000E+00  -0.1910038004E-02
   0.3119571893E+00   0.2026618310E+00   0.8958877034E-04  -0.7007323832E-05   0.1791775407E-03  -0.1401464766E-04   0.8217503421E-01   0.1035617146E-02   0.0000000000E+00  -0.1660535424E-02
   0.3215314316E+00   0.1928489862E+00   0.9241252838E-04  -0.6137256380E-05   0.1848250568E-03  -0.1227451276E-04   0.7984392214E-01   0.1515429267E-02   0.0000000000E+00  -0.1449074511E-02
   0.3215859950E+00   0.2121337628E+00   0.9201366983E-04  -0.7645067399E-05   0.1840273397E-03  -0.1529013480E-04   0.8394905454E-01   0.7017742812E-03   0.0000000000E+00  -0.1078650686E-02
   0.3023970382E+00   0.2124844119E+00   0.8663405089E-04  -0.7959703837E-05   0.1732681018E-03  -0.1591940767E-04   0.8455518887E-01   0.5789420102E-03   0.0000000000E+00  -0.1700409910E-02
   0.3023040264E+00   0.1932206766E+00   0.8729980012E-04  -0.6431791515E-05   0.1745996002E-03  -0.1286358303E-04   0.8037407035E-01   0.1264899721E-02   0.0000000000E+00  -0.2302723064E-02
   0.1077274626E+00   0.2321588849E+00   0.2650720857E-04  -0.2908204924E-04   0.5301441713E-04  -0.5816409847E-04   0.8618593680E-01  -0.4528081932E-03   0.0000000000E+00   0.5055331015E-02
   0.1070147315E+00   0.2499077573E+00   0.2342981992E-04  -0.3074756465E-04   0.4685963984E-04  -0.6149512930E-04   0.8578861566E-01   0.1033439949E-03   0.0000000000E+00   0.1452613106E-03
   0.6716684425E-01   0.1439853534E+00   0.2464461558E-04  -0.2866252645E-04   0.4928923115E-04  -0.5732505290E-04   0.1059519335E+00   0.2420667283E-03   0.0000000000E+00   0.7603414935E-02
   0.6218019092E-01   0.1545469308E+00   0.2137310703E-04  -0.3083572857E-04   0.4274621405E-04  -0.6167145714E-04   0.1035370677E+00   0.2327127212E-02   0.0000000000E+00   0.1023309523E-01
   0.5914029203E-01   0.1412798031E+00   0.2222664300E-04  -0.3022895575E-04   0.4445328600E-04  -0.6045791149E-04   0.1096566449E+00   0.3392229345E-02   0.0000000000E+00   0.7210470792E-02
   0.6467334294E-01   0.1492660573E+00   0.2295064768E-04  -0.2977490137E-04   0.4590129537E-04  -0.5954980274E-04   0.1050686185E+00   0.1482359166E-02   0.0000000000E+00   0.8980974825E-02
   0.5563898513E-01   0.1542531910E+00   0.1916580937E-04  -0.3217466150E-04   0.3833161873E-04  -0.6434932301E-04   0.1046690967E+00   0.5236314703E-02   0.0000000000E+00   0.9904084375E-02
   0.3548652271E-01   0.1262018385E+00   0.1582120312E-04  -0.3391981738E-04   0.3164240625E-04  -0.6783963476E-04   0.1316505278E+00   0.1638784888E-01   0.0000000000E+00  -0.1611752206E-02
   0.5333717474E-01   0.1304809857E+00   0.2206964611E-04  -0.3052376522E-04   0.4413929222E-04  -0.6104753043E-04   0.1158639748E+00   0.7223060682E-02   0.0000000000E+00   0.2409746016E-02
   0.7748275369E-01   0.6338123412E-01   0.6056866491E-04  -0.1936592624E-04   0.1211373298E-03  -0.3873185248E-04   0.1253904215E-01   0.1491301251E-01   0.0000000000E+00  -0.1384838740E-01
   0.9017419537E-01   0.7155996540E-01   0.5738842314E-04  -0.1453863440E-04   0.1147768463E-03  -0.2907726881E-04   0.4548653467E-01  -0.9099848617E-02   0.0000000000E+00  -0.1914242542E-01
   0.1527614819E+00   0.3951111746E-01   0.7519862292E-04  -0.1533779206E-05   0.1503972458E-03  -0.3067558412E-05   0.2361973095E-01  -0.7583781734E-02   0.0000000000E+00  -0.1574157217E-01
   0.1355701531E+00   0.4588970699E-01   0.7232002508E-04  -0.3010736007E-05   0.1446400502E-03  -0.6021472015E-05   0.2344875701E-01  -0.1499660902E-01   0.0000000000E+00  -0.1803324026E-01
   0.1493321054E+00   0.3024498049E-01   0.7644280722E-04  -0.1219870851E-05   0.1528856144E-03  -0.2439741702E-05   0.1697904034E-01  -0.9322491684E-02   0.0000000000E+00  -0.1276178446E-01
   0.1441660309E+00   0.4270074575E-01   0.7383296796E-04  -0.2160482017E-05   0.1476659359E-03  -0.4320964034E-05   0.2322762425E-01  -0.1209263435E-01   0.0000000000E+00  -0.1688531973E-01
   0.1287641943E+00   0.3599688252E-01   0.7405277829E-04  -0.2880191818E-05   0.1481055566E-03  -0.5760383637E-05   0.1376025573E-01  -0.2004301959E-01   0.0000000000E+00  -0.1394024725E-01
   0.9591602669E-01   0.2900334711E-01   0.7399713065E-04  -0.8373563713E-05   0.1479942613E-03  -0.1674712743E-04  -0.7355774126E-02  -0.5967753825E-01   0.0000000000E+00   0.1544648771E-01
   0.1151084373E+00   0.3609153843E-01   0.7319177268E-04  -0.4628588734E-05   0.1463835454E-03  -0.9257177468E-05   0.6993022277E-02  -0.2943222157E-01   0.0000000000E+00  -0.1024147955E-01
   0.1627380026E+00   0.0000000000E+00   0.7933618408E-04   0.0000000000E+00   0.1586723682E-03   0.0000000000E+00   0.1411830768E-01  -0.2370887305E-02   0.0000000000E+00  -0.1474164279E-03
   0.1666662282E+00   0.1949747915E-01   0.7875874850E-04  -0.4256819801E-06   0.1575174970E-03  -0.8513639602E-06   0.1880019533E-01  -0.1617167781E-02   0.0000000000E+00  -0.7955273456E-02
   0.1647026775E+00   0.9748740096E-02   0.7923249155E-04  -0.2126613419E-06   0.1584649831E-03  -0.4253226838E-06   0.1582197817E-01  -0.2147826815E-02   0.0000000000E+00  -0.3969595555E-02
   0.1562840202E+00   0.2023831602E-01   0.7806741571E-04  -0.6139280871E-06   0.1561348314E-03  -0.1227856174E-05   0.1530914806E-01  -0.5361618951E-02   0.0000000000E+00  -0.8701586483E-02
   0.1523199439E+00   0.0000000000E+00   0.7886895296E-04   0.0000000000E+00   0.1577379059E-03   0.0000000000E+00   0.1007251484E-01  -0.6508128445E-02   0.0000000000E+00  -0.2905021994E-03
   0.2148330459E+00   0.0000000000E+00   0.8323629893E-04   0.0000000000E+00   0.1664725979E-03   0.0000000000E+00   0.3125680082E-01   0.8018317504E-02   0.0000000000E+00  -0.5196458102E-04
   0.2757015265E+00   0.9272053519E-01   0.8670617371E-04  -0.1208071222E-05   0.1734123474E-03  -0.2416142445E-05   0.5563875049E-01   0.6609936612E-02   0.0000000000E+00  -0.6142225876E-02
   0.2938973462E+00   0.9348736017E-01   0.8991872422E-04  -0.1082609095E-05   0.1798374484E-03  -0.2165218189E-05   0.5599107934E-01   0.7590663078E-02   0.0000000000E+00  -0.4597300558E-02
   0.2940367615E+00   0.1128434909E+00   0.8901483334E-04  -0.1773366315E-05   0.1780296667E-03  -0.3546732629E-05   0.6075143017E-01   0.5986479024E-02   0.0000000000E+00  -0.4589523679E-02
   0.2761606431E+00   0.1113687809E+00   0.8558737738E-04  -0.1923030653E-05   0.1711747548E-03  -0.3846061306E-05   0.6053676380E-01   0.5077760656E-02   0.0000000000E+00  -0.6044577341E-02
   0.2847994457E+00   0.9310397146E-01   0.8831055096E-04  -0.1138648114E-05   0.1766211019E-03  -0.2277296228E-05   0.5582998044E-01   0.7150163317E-02   0.0000000000E+00  -0.5352826560E-02
   0.2939670895E+00   0.1031654979E+00   0.8947383323E-04  -0.1403706793E-05   0.1789476665E-03  -0.2807413586E-05   0.5833232295E-01   0.6777113733E-02   0.0000000000E+00  -0.4598471639E-02
   0.2850986948E+00   0.1121061617E+00   0.8729859703E-04  -0.1839433740E-05   0.1745971941E-03  -0.3678867480E-05   0.6065664372E-01   0.5576054002E-02   0.0000000000E+00  -0.5308336715E-02
   0.2759311049E+00   0.1020447236E+00   0.8615363435E-04  -0.1542471450E-05   0.1723072687E-03  -0.3084942901E-05   0.5806266355E-01   0.5832976854E-02   0.0000000000E+00  -0.6096523712E-02
   0.2931469451E+00   0.7443688369E-01   0.9063135276E-04  -0.5925370935E-06   0.1812627055E-03  -0.1185074187E-05   0.5166515183E-01   0.9143965113E-02   0.0000000000E+00  -0.4327725023E-02
   0.2935221914E+00   0.8396218503E-01   0.9028512642E-04  -0.8153241016E-06   0.1805702528E-03  -0.1630648203E-05   0.5375746458E-01   0.8345820374E-02   0.0000000000E+00  -0.4468780235E-02
   0.3026198042E+00   0.7479039662E-01   0.9216506906E-04  -0.5634944880E-06   0.1843301381E-03  -0.1126988976E-05   0.5196478498E-01   0.9494103101E-02   0.0000000000E+00  -0.3579612863E-02
   0.3031828101E+00   0.9394249602E-01   0.9156235640E-04  -0.1039660454E-05   0.1831247128E-03  -0.2079320907E-05   0.5618279018E-01   0.7955839343E-02   0.0000000000E+00  -0.3820754471E-02
   0.3032502589E+00   0.1133870266E+00   0.9079964342E-04  -0.1713470029E-05   0.1815992868E-03  -0.3426940058E-05   0.6085124910E-01   0.6351656258E-02   0.0000000000E+00  -0.3834197371E-02
   0.1772497186E+00   0.2078101331E+00   0.5065019384E-04  -0.1546763730E-04   0.1013003877E-03  -0.3093527461E-04   0.8966176463E-01  -0.2313107768E-02   0.0000000000E+00   0.3901839320E-03
   0.1672297785E+00   0.2158258278E+00   0.4662817884E-04  -0.1756273840E-04   0.9325635768E-04  -0.3512547680E-04   0.9098803861E-01  -0.1770187527E-02   0.0000000000E+00   0.1506813345E-02
   0.1581080927E+00   0.2078182101E+00   0.4486991156E-04  -0.1807997583E-04   0.8973982312E-04  -0.3615995165E-04   0.9008100231E-01  -0.2830795751E-02   0.0000000000E+00   0.2361288360E-02
   0.1768074743E+00   0.1925491251E-01   0.7947641942E-04  -0.3089295346E-06   0.1589528388E-03  -0.6178590693E-06   0.2231525648E-01   0.1103256193E-02   0.0000000000E+00  -0.7004868373E-02
   0.1731564069E+00   0.0000000000E+00   0.7991362339E-04   0.0000000000E+00   0.1598272468E-03   0.0000000000E+00   0.1849267694E-01   0.8869895490E-03   0.0000000000E+00  -0.1151148626E-03
   0.1713200293E+00   0.3887947003E-01   0.7699711542E-04  -0.9198232454E-06   0.1539942308E-03  -0.1839646491E-05   0.2812410718E-01  -0.2202588806E-02   0.0000000000E+00  -0.1353434937E-01
   0.1689934935E+00   0.2918854017E-01   0.7799950934E-04  -0.6505776574E-06   0.1559990187E-03  -0.1301155315E-05   0.2300992489E-01  -0.1963713531E-02   0.0000000000E+00  -0.1071126481E-01
   0.1810074057E+00   0.3863020011E-01   0.7797955915E-04  -0.7209982356E-06   0.1559591183E-03  -0.1441996471E-05   0.3022512328E-01   0.1514959945E-03   0.0000000000E+00  -0.1209136224E-01
   0.2932281413E+00   0.1327412718E+00   0.8784476916E-04  -0.2697409786E-05   0.1756895383E-03  -0.5394819572E-05   0.6581695475E-01   0.4395286836E-02   0.0000000000E+00  -0.4386584626E-02
   0.3026507464E+00   0.1332636862E+00   0.8984312238E-04  -0.2609606811E-05   0.1796862448E-03  -0.5219213621E-05   0.6582455074E-01   0.4771754710E-02   0.0000000000E+00  -0.3672892295E-02
   0.2936324558E+00   0.1227924556E+00   0.8843627262E-04  -0.2209472501E-05   0.1768725452E-03  -0.4418945001E-05   0.6327552351E-01   0.5190971237E-02   0.0000000000E+00  -0.4489482297E-02
   0.5196120487E-01   0.1832628469E+00   0.1537765662E-04  -0.3521402046E-04   0.3075531323E-04  -0.7042804092E-04   0.9248238636E-01   0.4534308824E-02   0.0000000000E+00   0.1141666913E-01
   0.4325235535E-01   0.1837140011E+00   0.1272278430E-04  -0.3661763698E-04   0.2544556861E-04  -0.7323527396E-04   0.9200539168E-01   0.6601569560E-02   0.0000000000E+00   0.1016105555E-01
   0.5379517281E-01   0.1908822546E+00   0.1539256855E-04  -0.3549813788E-04   0.3078513709E-04  -0.7099627576E-04   0.8945419491E-01   0.3528630636E-02   0.0000000000E+00   0.1111659583E-01
   0.5046846434E-01   0.1684890447E+00   0.1603271326E-04  -0.3433043561E-04   0.3206542652E-04  -0.6866087123E-04   0.9876241957E-01   0.6334350772E-02   0.0000000000E+00   0.1128334092E-01
   0.5121477545E-01   0.1758759569E+00   0.1568545090E-04  -0.3477104353E-04   0.3137090180E-04  -0.6954208705E-04   0.9545888131E-01   0.5403608721E-02   0.0000000000E+00   0.1125716033E-01
   0.4194531432E-01   0.1684921751E+00   0.1329130595E-04  -0.3576063160E-04   0.2658261191E-04  -0.7152126320E-04   0.9901002950E-01   0.9074614787E-02   0.0000000000E+00   0.1002315128E-01
   0.4978297989E-01   0.1612243407E+00   0.1644829507E-04  -0.3388844386E-04   0.3289659014E-04  -0.6777688772E-04   0.1020869982E+00   0.7138035642E-02   0.0000000000E+00   0.1050667828E-01
   0.2920133230E+00   0.5550499979E-01   0.9117700850E-04  -0.2745027126E-06   0.1823540170E-03  -0.5490054251E-06   0.4793613160E-01   0.1053941248E-01   0.0000000000E+00  -0.3720077521E-02
   0.2925801935E+00   0.6497100186E-01   0.9091918069E-04  -0.4141121731E-06   0.1818383614E-03  -0.8282243462E-06   0.4969436747E-01   0.9810994152E-02   0.0000000000E+00  -0.4031144241E-02
   0.3017202206E+00   0.5577873767E-01   0.9262187388E-04  -0.2571768520E-06   0.1852437478E-03  -0.5143537041E-06   0.4836380813E-01   0.1086129714E-01   0.0000000000E+00  -0.3064291173E-02
   0.2919247965E+00   0.1532825493E+00   0.8649350734E-04  -0.3870570752E-05   0.1729870147E-03  -0.7741141504E-05   0.7105340924E-01   0.2991054184E-02   0.0000000000E+00  -0.3984991565E-02
   0.2925764664E+00   0.1430119878E+00   0.8717313950E-04  -0.3258053685E-05   0.1743462790E-03  -0.6516107370E-05   0.6846208943E-01   0.3702888024E-02   0.0000000000E+00  -0.4182784390E-02
   0.3018536827E+00   0.1535007525E+00   0.8879955548E-04  -0.3729489433E-05   0.1775991110E-03  -0.7458978867E-05   0.7090888452E-01   0.3345877868E-02   0.0000000000E+00  -0.3344509316E-02
   0.2708331045E+00   0.3669215748E-01   0.8884049014E-04  -0.1266383341E-06   0.1776809803E-03  -0.2532766682E-06   0.4352081122E-01   0.1080239324E-01   0.0000000000E+00  -0.3840557793E-02
   0.2509485864E+00   0.3681372694E-01   0.8622080257E-04  -0.1718859765E-06   0.1724416051E-03  -0.3437719531E-06   0.4152561388E-01   0.9595408538E-02   0.0000000000E+00  -0.5114353543E-02
   0.2698632703E+00   0.2749181365E-01   0.8899711391E-04  -0.7011817687E-07   0.1779942278E-03  -0.1402363537E-06   0.4222510387E-01   0.1113179031E-01   0.0000000000E+00  -0.2970397017E-02
   0.2608908048E+00   0.3675294952E-01   0.8751725822E-04  -0.1468255231E-06   0.1750345164E-03  -0.2936510463E-06   0.4253358937E-01   0.1022899703E-01   0.0000000000E+00  -0.4441440476E-02
   0.2497274855E+00   0.2757803573E-01   0.8645084549E-04  -0.9985790054E-07   0.1729016910E-03  -0.1997158011E-06   0.3992350231E-01   0.9966653633E-02   0.0000000000E+00  -0.3970168947E-02
   0.2337831991E+00   0.5569851735E-01   0.8272569694E-04  -0.5539506202E-06   0.1654513939E-03  -0.1107901240E-05   0.4393558533E-01   0.6433143627E-02   0.0000000000E+00  -0.8589321039E-02
   0.2532938832E+00   0.5532622258E-01   0.8551674012E-04  -0.4162388788E-06   0.1710334802E-03  -0.8324777575E-06   0.4549837630E-01   0.8290365447E-02   0.0000000000E+00  -0.6715458222E-02
   0.2323263933E+00   0.4637303884E-01   0.8324944373E-04  -0.3777214978E-06   0.1664988875E-03  -0.7554429956E-06   0.4130725708E-01   0.7131125389E-02   0.0000000000E+00  -0.7643608772E-02
   0.2409089280E+00   0.3693059022E-01   0.8493900431E-04  -0.2038587897E-06   0.1698780086E-03  -0.4077175794E-06   0.4026643452E-01   0.8793017695E-02   0.0000000000E+00  -0.5833572258E-02
   0.2521213373E+00   0.4607003127E-01   0.8590275636E-04  -0.2758430823E-06   0.1718055127E-03  -0.5516861646E-06   0.4336513810E-01   0.8902906282E-02   0.0000000000E+00  -0.5927057762E-02
   0.2435385206E+00   0.5551239067E-01   0.8411420839E-04  -0.4782104350E-06   0.1682284168E-03  -0.9564208700E-06   0.4474366278E-01   0.7421747352E-02   0.0000000000E+00  -0.7598361363E-02
   0.2807738844E+00   0.3673455330E-01   0.9018379492E-04  -0.1110676334E-06   0.1803675898E-03  -0.2221352669E-06   0.4428888968E-01   0.1124581160E-01   0.0000000000E+00  -0.3275468174E-02
   0.3118514572E+00   0.1832190075E+00   0.9014707826E-04  -0.5545827475E-05   0.1802941565E-03  -0.1109165495E-04   0.7782382875E-01   0.1907195674E-02   0.0000000000E+00  -0.2119694240E-02
   0.2448288349E+00   0.2139843021E+00   0.7007997514E-04  -0.1012564330E-04   0.1401599503E-03  -0.2025128660E-04   0.8765171700E-01  -0.1648836659E-03   0.0000000000E+00  -0.2419332216E-02
   0.2350717417E+00   0.1970269171E+00   0.6868222387E-04  -0.9210981484E-05   0.1373644477E-03  -0.1842196297E-04   0.8436579715E-01  -0.6363937366E-03   0.0000000000E+00  -0.3313321679E-02
   0.2544435258E+00   0.1956509240E+00   0.7419758477E-04  -0.8075319624E-05   0.1483951695E-03  -0.1615063925E-04   0.8292602849E-01   0.5069401469E-04   0.0000000000E+00  -0.3475955048E-02
   0.2447576804E+00   0.1963390354E+00   0.7145546099E-04  -0.8604861007E-05   0.1429109220E-03  -0.1720972201E-04   0.8364504285E-01  -0.2810935744E-03   0.0000000000E+00  -0.3407649117E-02
   0.2544804610E+00   0.2046702556E+00   0.7354533844E-04  -0.8829792888E-05   0.1470906769E-03  -0.1765958578E-04   0.8499712082E-01   0.2759885657E-04   0.0000000000E+00  -0.2973009391E-02
   0.2351058921E+00   0.2056528999E+00   0.6793602645E-04  -0.9961361182E-05   0.1358720529E-03  -0.1992272236E-04   0.8631164865E-01  -0.4949659511E-03   0.0000000000E+00  -0.2799967105E-02
   0.1597761569E+00   0.7268564940E-01   0.6924764314E-04  -0.3336065928E-05   0.1384952863E-03  -0.6672131855E-05   0.4765431501E-01  -0.9817433229E-02   0.0000000000E+00  -0.1851760505E-01
   0.1739584270E+00   0.6065621710E-01   0.7383232860E-04  -0.1833701129E-05   0.1476646572E-03  -0.3667402259E-05   0.4045694539E-01  -0.4443268957E-02   0.0000000000E+00  -0.1657578296E-01
   0.1843343942E+00   0.8233098136E-01   0.7163374747E-04  -0.2775946631E-05   0.1432674949E-03  -0.5551893263E-05   0.5252107951E-01  -0.4910060748E-02   0.0000000000E+00  -0.1542796845E-01
   0.1696026176E+00   0.8994178243E-01   0.6737318760E-04  -0.4165655974E-05   0.1347463752E-03  -0.8331311948E-05   0.5781111452E-01  -0.9094216933E-02   0.0000000000E+00  -0.1618384219E-01
   0.1668676577E+00   0.6667118862E-01   0.7165957526E-04  -0.2499760579E-05   0.1433191505E-03  -0.4999521159E-05   0.4373207635E-01  -0.7321758416E-02   0.0000000000E+00  -0.1760752507E-01
   0.1791462386E+00   0.7149367378E-01   0.7267586813E-04  -0.2278740379E-05   0.1453517363E-03  -0.4557480757E-05   0.4679736375E-01  -0.4629025559E-02   0.0000000000E+00  -0.1608072718E-01
   0.1769686956E+00   0.8613655459E-01   0.6956920208E-04  -0.3413236053E-05   0.1391384042E-03  -0.6826472105E-05   0.5508195350E-01  -0.7048926067E-02   0.0000000000E+00  -0.1587974523E-01
   0.1646891483E+00   0.8131374734E-01   0.6823076215E-04  -0.3739154991E-05   0.1364615243E-03  -0.7478309981E-05   0.5330169308E-01  -0.9294956090E-02   0.0000000000E+00  -0.1752248712E-01
   0.3021404395E+00   0.2313522341E+00   0.8596815992E-04  -0.9573311969E-05   0.1719363198E-03  -0.1914662394E-04   0.8827855734E-01   0.1296379975E-03   0.0000000000E+00  -0.9811119086E-03
   0.3118741532E+00   0.2217766618E+00   0.8905008056E-04  -0.8574064662E-05   0.1781001611E-03  -0.1714812932E-04   0.8608606970E-01   0.4090860006E-03   0.0000000000E+00  -0.1123763984E-02
   0.3016449351E+00   0.2499662371E+00   0.8534838136E-04  -0.1125429987E-04   0.1706967627E-03  -0.2250859974E-04   0.9145362675E-01  -0.3893216402E-04   0.0000000000E+00  -0.2120396719E-04
   0.9891786878E-01   0.2141219517E+00   0.2632936094E-04  -0.2914210104E-04   0.5265872188E-04  -0.5828420209E-04   0.8685228750E-01  -0.1407443927E-02   0.0000000000E+00   0.8814956933E-02
   0.9838367083E-01   0.2230421682E+00   0.2507561134E-04  -0.3004793994E-04   0.5015122268E-04  -0.6009587988E-04   0.8539264572E-01  -0.8867080243E-03   0.0000000000E+00   0.7303870998E-02
   0.1089473565E+00   0.2146467474E+00   0.2920049023E-04  -0.2726220050E-04   0.5840098045E-04  -0.5452440099E-04   0.8784787904E-01  -0.1824859059E-02   0.0000000000E+00   0.7706267570E-02
   0.7815355645E-01   0.2225470944E+00   0.1949265159E-04  -0.3380720375E-04   0.3898530319E-04  -0.6761440749E-04   0.8174163591E-01  -0.1636354397E-03   0.0000000000E+00   0.8161606724E-02
   0.8858395332E-01   0.2137217092E+00   0.2339470609E-04  -0.3109825785E-04   0.4678941218E-04  -0.6219651570E-04   0.8557046489E-01  -0.9835981103E-03   0.0000000000E+00   0.9286845657E-02
   0.1398670487E+00   0.1993258412E+00   0.4044057992E-04  -0.2010793881E-04   0.8088115983E-04  -0.4021587762E-04   0.8982786084E-01  -0.4137545360E-02   0.0000000000E+00   0.4661275404E-02
   0.1209925982E+00   0.1985691152E+00   0.3480573591E-04  -0.2339126643E-04   0.6961147183E-04  -0.4678253286E-04   0.9000977352E-01  -0.4024260169E-02   0.0000000000E+00   0.7286813963E-02
   0.1390978612E+00   0.2075362352E+00   0.3914774836E-04  -0.2107527889E-04   0.7829549672E-04  -0.4215055778E-04   0.9000917387E-01  -0.3112310854E-02   0.0000000000E+00   0.4648175455E-02
   0.1199847884E+00   0.2068702324E+00   0.3346214647E-04  -0.2442152103E-04   0.6692429295E-04  -0.4884304205E-04   0.8943411464E-01  -0.2998302484E-02   0.0000000000E+00   0.7063419986E-02
   0.1304298325E+00   0.1989476068E+00   0.3762484384E-04  -0.2170674896E-04   0.7524968768E-04  -0.4341349792E-04   0.8989249313E-01  -0.4216623165E-02   0.0000000000E+00   0.5887782307E-02
   0.2254100663E+00   0.1976937116E+00   0.6588542229E-04  -0.9897473905E-05   0.1317708446E-03  -0.1979494781E-04   0.8511466644E-01  -0.1024017819E-02   0.0000000000E+00  -0.3021917069E-02
   0.2184066835E+00   0.7553253588E-01   0.7842683965E-04  -0.1387405213E-05   0.1568536793E-03  -0.2774810427E-05   0.4943642916E-01   0.2244483067E-02   0.0000000000E+00  -0.1149697833E-01
   0.2163702508E+00   0.6607197189E-01   0.7920326477E-04  -0.1055602658E-05   0.1584065295E-03  -0.2111205316E-05   0.4587846769E-01   0.3062787578E-02   0.0000000000E+00  -0.1117887341E-01
   0.2240584515E+00   0.5615492172E-01   0.8133116897E-04  -0.6531602898E-06   0.1626623379E-03  -0.1306320580E-05   0.4318385620E-01   0.5240997446E-02   0.0000000000E+00  -0.9628765002E-02
   0.2352761513E+00   0.6500585841E-01   0.8214641685E-04  -0.7757972033E-06   0.1642928337E-03  -0.1551594407E-05   0.4674687187E-01   0.5608142363E-02   0.0000000000E+00  -0.9035807399E-02
   0.2275878608E+00   0.7492284841E-01   0.7998359848E-04  -0.1200795762E-05   0.1599671970E-03  -0.2401591524E-05   0.4957801337E-01   0.3607819114E-02   0.0000000000E+00  -0.1041631473E-01
   0.8038962696E-01   0.1527152674E+00   0.2785048748E-04  -0.2661286778E-04   0.5570097495E-04  -0.5322573555E-04   0.1008425868E+00  -0.4336540785E-02   0.0000000000E+00   0.8617399971E-02
   0.6990320582E-01   0.1666497404E+00   0.2252924137E-04  -0.3037486120E-04   0.4505848274E-04  -0.6074972239E-04   0.9821304898E-01   0.3594568868E-04   0.0000000000E+00   0.1141326910E-01
   0.7377825615E-01   0.1483503635E+00   0.2625565075E-04  -0.2761982602E-04   0.5251130150E-04  -0.5523965205E-04   0.1032021007E+00  -0.2466897058E-02   0.0000000000E+00   0.8188970267E-02
   0.7514614872E-01   0.1596823484E+00   0.2510187439E-04  -0.2854553420E-04   0.5020374878E-04  -0.5709106840E-04   0.9989704032E-01  -0.1843074461E-02   0.0000000000E+00   0.1014793856E-01
   0.6604167219E-01   0.1605983714E+00   0.2194242967E-04  -0.3059586176E-04   0.4388485934E-04  -0.6119172352E-04   0.1007695627E+00   0.1080807553E-02   0.0000000000E+00   0.1091844712E-01
   0.1415746458E+00   0.1830607733E+00   0.4310228015E-04  -0.1807724360E-04   0.8620456029E-04  -0.3615448720E-04   0.8938439369E-01  -0.6499979543E-02   0.0000000000E+00   0.3498363432E-02
   0.1507008198E+00   0.1834630135E+00   0.4581026810E-04  -0.1666749920E-04   0.9162053620E-04  -0.3333499841E-04   0.8853720144E-01  -0.6203424214E-02   0.0000000000E+00   0.2162840639E-02
   0.1492644460E+00   0.1995310241E+00   0.4326000314E-04  -0.1859497270E-04   0.8652000629E-04  -0.3718994539E-04   0.8954206064E-01  -0.4016372450E-02   0.0000000000E+00   0.3349217800E-02
   0.1407208017E+00   0.1911932721E+00   0.4175856599E-04  -0.1910663715E-04   0.8351713197E-04  -0.3821327430E-04   0.8965351254E-01  -0.5302259204E-02   0.0000000000E+00   0.4110739306E-02
   0.2727442051E+00   0.1744892756E+00   0.8055435002E-04  -0.5741461951E-05   0.1611087000E-03  -0.1148292390E-04   0.7700665684E-01   0.1170541398E-02   0.0000000000E+00  -0.4147682896E-02
   0.2921995857E+00   0.1736135321E+00   0.8553388682E-04  -0.5195963368E-05   0.1710677736E-03  -0.1039192674E-04   0.7605518084E-01   0.1895220570E-02   0.0000000000E+00  -0.3368620846E-02
   0.2824719145E+00   0.1740514755E+00   0.8305549195E-04  -0.5444823582E-05   0.1661109839E-03  -0.1088964716E-04   0.7654237565E-01   0.1580797975E-02   0.0000000000E+00  -0.3756385131E-02
   0.2924363039E+00   0.1835202601E+00   0.8511630931E-04  -0.5899958129E-05   0.1702326186E-03  -0.1179991626E-04   0.7842209101E-01   0.1505179580E-02   0.0000000000E+00  -0.3020595134E-02
   0.2731691021E+00   0.1843701014E+00   0.8002968395E-04  -0.6466863182E-05   0.1600593679E-03  -0.1293372636E-04   0.7936839599E-01   0.9120374831E-03   0.0000000000E+00  -0.3681761782E-02
   0.9435950769E-01   0.1609667730E+00   0.3130419645E-04  -0.2450601653E-04   0.6260839290E-04  -0.4901203305E-04   0.9661379503E-01  -0.6868310925E-02   0.0000000000E+00   0.8207996987E-02
   0.8726097651E-01   0.1754009129E+00   0.2713503613E-04  -0.2764169054E-04   0.5427007227E-04  -0.5528338109E-04   0.9445394638E-01  -0.3550087620E-02   0.0000000000E+00   0.1078282546E-01
   0.9081006621E-01   0.1681837603E+00   0.2916100429E-04  -0.2610121907E-04   0.5832200859E-04  -0.5220243814E-04   0.9590378430E-01  -0.5033408186E-02   0.0000000000E+00   0.9636777233E-02
   0.7858216579E-01   0.1710253624E+00   0.2485699754E-04  -0.2899887040E-04   0.4971399507E-04  -0.5799774080E-04   0.9615967789E-01  -0.2088319327E-02   0.0000000000E+00   0.1116179494E-01
   0.8737460080E-01   0.1568410845E+00   0.2958973459E-04  -0.2553550673E-04   0.5917946919E-04  -0.5107101346E-04   0.9858311516E-01  -0.5954845993E-02   0.0000000000E+00   0.8503066784E-02
   0.2743437070E+00   0.7397144105E-01   0.8760165611E-04  -0.6810830205E-06   0.1752033122E-03  -0.1362166041E-05   0.5098041410E-01   0.8167419744E-02   0.0000000000E+00  -0.5877629332E-02
   0.2750226341E+00   0.8334605889E-01   0.8716469404E-04  -0.9222381180E-06   0.1743293881E-03  -0.1844476236E-05   0.5325333468E-01   0.7370208726E-02   0.0000000000E+00  -0.6018066339E-02
   0.2837453000E+00   0.7420417283E-01   0.8911266648E-04  -0.6320894895E-06   0.1782253330E-03  -0.1264178979E-05   0.5133599670E-01   0.8696548657E-02   0.0000000000E+00  -0.5081682076E-02
   0.2263743209E+00   0.1122916037E+00   0.7547697737E-04  -0.3114441172E-05   0.1509539547E-03  -0.6228882345E-05   0.6237533117E-01  -0.6259374003E-04   0.0000000000E+00  -0.9827347273E-02
   0.2226755793E+00   0.9417804401E-01   0.7693043323E-04  -0.2177828370E-05   0.1538608665E-03  -0.4355656740E-05   0.5625608380E-01   0.9096984621E-03   0.0000000000E+00  -0.1097910170E-01
   0.2245248975E+00   0.1032348769E+00   0.7618883196E-04  -0.2628380432E-05   0.1523776639E-03  -0.5256760865E-05   0.5943149589E-01   0.4480317490E-03   0.0000000000E+00  -0.1040112933E-01
   0.2311482265E+00   0.9342715962E-01   0.7858817651E-04  -0.1929461507E-05   0.1571763530E-03  -0.3858923013E-05   0.5589882655E-01   0.2172958215E-02   0.0000000000E+00  -0.1016283444E-01
   0.2342332848E+00   0.1114803633E+00   0.7719127612E-04  -0.2813560907E-05   0.1543825522E-03  -0.5627121813E-05   0.6175214980E-01   0.1045811735E-02   0.0000000000E+00  -0.9278152669E-02
   0.2726507808E+00   0.5526106146E-01   0.8832492172E-04  -0.3287785553E-06   0.1766498434E-03  -0.6575571106E-06   0.4683766954E-01   0.9616576810E-02   0.0000000000E+00  -0.5122720896E-02
   0.2717420389E+00   0.4597666004E-01   0.8860996492E-04  -0.2114519467E-06   0.1772199298E-03  -0.4229038933E-06   0.4503633638E-01   0.1017036907E-01   0.0000000000E+00  -0.4490280901E-02
   0.2913641022E+00   0.4614101672E-01   0.9138338831E-04  -0.1715270847E-06   0.1827667766E-03  -0.3430541694E-06   0.4634948513E-01   0.1105361073E-01   0.0000000000E+00  -0.3243922552E-02
   0.2823320310E+00   0.5538303951E-01   0.8974400680E-04  -0.2986958172E-06   0.1794880136E-03  -0.5973916344E-06   0.4739768177E-01   0.1011067248E-01   0.0000000000E+00  -0.4397466436E-02
   0.2734972993E+00   0.6461631384E-01   0.8798178100E-04  -0.4846871309E-06   0.1759635620E-03  -0.9693742618E-06   0.4881107511E-01   0.8863697328E-02   0.0000000000E+00  -0.5510420547E-02
   0.1570885831E+00   0.5348791692E-01   0.7298771035E-04  -0.2121726451E-05   0.1459754207E-03  -0.4243452901E-05   0.3415281534E-01  -0.8265497338E-02   0.0000000000E+00  -0.1784164180E-01
   0.1469641241E+00   0.6074712497E-01   0.7004235957E-04  -0.3249442044E-05   0.1400847191E-03  -0.6498884088E-05   0.3829389235E-01  -0.1232226217E-01   0.0000000000E+00  -0.1975894816E-01
   0.1520265401E+00   0.5711765327E-01   0.7157735450E-04  -0.2640843486E-05   0.1431547090E-03  -0.5281686971E-05   0.3600330488E-01  -0.1028329993E-01   0.0000000000E+00  -0.1886517992E-01
   0.1412669562E+00   0.5331847993E-01   0.7112307536E-04  -0.3108790461E-05   0.1422461507E-03  -0.6217580923E-05   0.3168077732E-01  -0.1341435659E-01   0.0000000000E+00  -0.1901497929E-01
   0.1549251210E+00   0.4649955690E-01   0.7412265238E-04  -0.1814499490E-05   0.1482453048E-03  -0.3628998979E-05   0.2886078418E-01  -0.8125841533E-02   0.0000000000E+00  -0.1680148416E-01
   0.1620406932E+00   0.3919543352E-01   0.7607973596E-04  -0.1179594194E-05   0.1521594719E-03  -0.2359188387E-05   0.2588584170E-01  -0.4858855707E-02   0.0000000000E+00  -0.1445951559E-01
   0.7021677230E-01   0.1372500571E+00   0.2694540074E-04  -0.2721231147E-04   0.5389080148E-04  -0.5442462293E-04   0.1074052527E+00  -0.1604478868E-02   0.0000000000E+00   0.5390589665E-02
   0.1239937790E+00   0.1490536300E+00   0.4284168023E-04  -0.1700832133E-04   0.8568336046E-04  -0.3401664265E-04   0.9106171956E-01  -0.1222752594E-01   0.0000000000E+00   0.7492112323E-03
   0.1447481224E+00   0.1473190101E+00   0.4951178746E-04  -0.1333930233E-04   0.9902357492E-04  -0.2667860467E-04   0.8593683892E-01  -0.1169982685E-01   0.0000000000E+00  -0.2843675740E-02
   0.1433030169E+00   0.1660855628E+00   0.4604297085E-04  -0.1584772722E-04   0.9208594170E-04  -0.3169545445E-04   0.8837513200E-01  -0.9081723313E-02   0.0000000000E+00   0.1074511120E-02
   0.1256062088E+00   0.1662563666E+00   0.4056093412E-04  -0.1889512609E-04   0.8112186824E-04  -0.3779025218E-04   0.9120687694E-01  -0.9232498452E-02   0.0000000000E+00   0.3982715213E-02
   0.1343710852E+00   0.1481865734E+00   0.4622273739E-04  -0.1508685446E-04   0.9244547477E-04  -0.3017370892E-04   0.8840666592E-01  -0.1219665115E-01   0.0000000000E+00  -0.1136636618E-02
   0.1440254099E+00   0.1567022394E+00   0.4772162751E-04  -0.1460686820E-04   0.9544325501E-04  -0.2921373640E-04   0.8732334402E-01  -0.1033327760E-01   0.0000000000E+00  -0.8281892714E-03
   0.1344546679E+00   0.1661711221E+00   0.4332263023E-04  -0.1731895037E-04   0.8664526046E-04  -0.3463790074E-04   0.8977613734E-01  -0.9331207858E-02   0.0000000000E+00   0.2454639754E-02
   0.1247998133E+00   0.1576549338E+00   0.4164244240E-04  -0.1797306053E-04   0.8328488480E-04  -0.3594612107E-04   0.9136945451E-01  -0.1064164421E-01   0.0000000000E+00   0.2445565639E-02
   0.6674564893E-01   0.1807888274E+00   0.2011497697E-04  -0.3233153167E-04   0.4022995393E-04  -0.6466306334E-04   0.9350689388E-01   0.1142575206E-02   0.0000000000E+00   0.1195934141E-01
   0.5935337010E-01   0.1820256810E+00   0.1772736655E-04  -0.3382234795E-04   0.3545473310E-04  -0.6764469590E-04   0.9303207884E-01   0.2998864666E-02   0.0000000000E+00   0.1165387446E-01
   0.6018577969E-01   0.1675691540E+00   0.1926249737E-04  -0.3243198363E-04   0.3852499473E-04  -0.6486396726E-04   0.9860121946E-01   0.3238174072E-02   0.0000000000E+00   0.1143264112E-01
   0.6832429705E-01   0.1737192188E+00   0.2127864994E-04  -0.3137472450E-04   0.4255729988E-04  -0.6274944900E-04   0.9601584239E-01   0.7507429356E-03   0.0000000000E+00   0.1179812822E-01
   0.1096503741E+00   0.1660543147E+00   0.3553435768E-04  -0.2193744360E-04   0.7106871535E-04  -0.4387488719E-04   0.9373683060E-01  -0.8326584362E-02   0.0000000000E+00   0.6655253824E-02
   0.1055283597E+00   0.1805212058E+00   0.3228756177E-04  -0.2444774426E-04   0.6457512353E-04  -0.4889548851E-04   0.9236120759E-01  -0.5535557049E-02   0.0000000000E+00   0.8864365671E-02
   0.1075892535E+00   0.1732877053E+00   0.3387315996E-04  -0.2321091159E-04   0.6774631993E-04  -0.4642182318E-04   0.9323031003E-01  -0.6873758546E-02   0.0000000000E+00   0.7790986328E-02
   0.9639472350E-01   0.1779611253E+00   0.2972976548E-04  -0.2602256195E-04   0.5945953096E-04  -0.5204512389E-04   0.9334351455E-01  -0.4984717537E-02   0.0000000000E+00   0.9827002564E-02
   0.1020049913E+00   0.1635106281E+00   0.3343611204E-04  -0.2319364914E-04   0.6687222407E-04  -0.4638729829E-04   0.9507177261E-01  -0.7795565066E-02   0.0000000000E+00   0.7429907918E-02
   0.2148959359E+00   0.1816555619E+00   0.6457728680E-04  -0.9236687281E-05   0.1291545736E-03  -0.1847337456E-04   0.8235193472E-01  -0.2146987375E-02   0.0000000000E+00  -0.3855540640E-02
   0.2341165193E+00   0.1797970408E+00   0.7000876475E-04  -0.7802402569E-05   0.1400175295E-03  -0.1560480514E-04   0.8048343156E-01  -0.9163162916E-03   0.0000000000E+00  -0.4418735365E-02
   0.2153220631E+00   0.1900078960E+00   0.6380201795E-04  -0.9953673710E-05   0.1276040359E-03  -0.1990734742E-04   0.8412070413E-01  -0.1777475411E-02   0.0000000000E+00  -0.3240316884E-02
   0.2245062899E+00   0.1807264372E+00   0.6731398038E-04  -0.8474267494E-05   0.1346279608E-03  -0.1694853499E-04   0.8141976569E-01  -0.1504247105E-02   0.0000000000E+00  -0.4157516115E-02
   0.2345940767E+00   0.1884119902E+00   0.6933023302E-04  -0.8500592716E-05   0.1386604660E-03  -0.1700118543E-04   0.8244343468E-01  -0.7758901073E-03   0.0000000000E+00  -0.3844915084E-02
   0.3019838226E+00   0.1735185827E+00   0.8799287869E-04  -0.5011758687E-05   0.1759857574E-03  -0.1002351737E-04   0.7579665473E-01   0.2182043683E-02   0.0000000000E+00  -0.2855195912E-02
   0.2754780684E+00   0.1304968474E+00   0.8416278810E-04  -0.2865207804E-05   0.1683255762E-03  -0.5730415607E-05   0.6566671526E-01   0.3578173513E-02   0.0000000000E+00  -0.5686555045E-02
   0.2843531077E+00   0.1316191004E+00   0.8599955799E-04  -0.2770207181E-05   0.1719991160E-03  -0.5540414362E-05   0.6575754053E-01   0.4060810915E-02   0.0000000000E+00  -0.5028582334E-02
   0.2758193725E+00   0.1209328910E+00   0.8488081833E-04  -0.2369673734E-05   0.1697616367E-03  -0.4739347469E-05   0.6309798550E-01   0.4318164957E-02   0.0000000000E+00  -0.5866528684E-02
   0.2705651441E+00   0.1522735004E+00   0.8153637541E-04  -0.4268544682E-05   0.1630727508E-03  -0.8537089365E-05   0.7158270749E-01   0.2020071020E-02   0.0000000000E+00  -0.5187614663E-02
   0.2812449834E+00   0.1527780934E+00   0.8401945982E-04  -0.4046544882E-05   0.1680389196E-03  -0.8093089765E-05   0.7130861715E-01   0.2541563479E-02   0.0000000000E+00  -0.4595262239E-02
   0.2730216684E+00   0.1413852700E+00   0.8287045149E-04  -0.3532335395E-05   0.1657409030E-03  -0.7064670790E-05   0.6861743803E-01   0.2767360721E-02   0.0000000000E+00  -0.5454379991E-02
   0.2629723255E+00   0.5529365507E-01   0.8691349180E-04  -0.3681781210E-06   0.1738269836E-03  -0.7363562421E-06   0.4618432972E-01   0.8997407183E-02   0.0000000000E+00  -0.5881973276E-02
   0.2535196080E+00   0.1774669958E+00   0.7536466225E-04  -0.6653411476E-05   0.1507293245E-03  -0.1330682295E-04   0.7868572243E-01   0.2080403464E-03   0.0000000000E+00  -0.4492592746E-02
   0.2539815364E+00   0.1865589832E+00   0.7476614616E-04  -0.7353941983E-05   0.1495322923E-03  -0.1470788397E-04   0.8083998351E-01   0.1343421195E-03   0.0000000000E+00  -0.3963340394E-02
   0.2438181354E+00   0.1786321343E+00   0.7270813218E-04  -0.7189225212E-05   0.1454162644E-03  -0.1437845042E-04   0.7958846316E-01  -0.3344020572E-03   0.0000000000E+00  -0.4473016960E-02
   0.2920621557E+00   0.1634481062E+00   0.8600691357E-04  -0.4511253920E-05   0.1720138271E-03  -0.9022507840E-05   0.7360613758E-01   0.2455357600E-02   0.0000000000E+00  -0.3664256842E-02
   0.1871575742E+00   0.1996735109E+00   0.5457907394E-04  -0.1350803689E-04   0.1091581479E-03  -0.2701607377E-04   0.8785791295E-01  -0.2634348308E-02   0.0000000000E+00  -0.7887864163E-03
   0.1842981882E+00   0.5941157887E-01   0.7546973054E-04  -0.1446308551E-05   0.1509394611E-03  -0.2892617101E-05   0.4064479421E-01  -0.1958478037E-02   0.0000000000E+00  -0.1495416650E-01
   0.1726395210E+00   0.4976798950E-01   0.7550966275E-04  -0.1327501118E-05   0.1510193255E-03  -0.2655002237E-05   0.3405626210E-01  -0.3420264420E-02   0.0000000000E+00  -0.1514603586E-01
   0.1222625088E+00   0.5811067467E-01   0.6741826523E-04  -0.5642008709E-05   0.1348365305E-03  -0.1128401742E-04   0.3266529325E-01  -0.2027782800E-01   0.0000000000E+00  -0.1984658844E-01
   0.1102219942E+00   0.7307537638E-01   0.6025206470E-04  -0.9395206783E-05   0.1205041294E-03  -0.1879041357E-04   0.5098249915E-01  -0.1948462446E-01   0.0000000000E+00  -0.2048465523E-01
   0.1162428474E+00   0.6559338167E-01   0.6403246133E-04  -0.7399278181E-05   0.1280649227E-03  -0.1479855636E-04   0.4088835041E-01  -0.2019000421E-01   0.0000000000E+00  -0.2027530186E-01
   0.1032589849E+00   0.6829148673E-01   0.6093930341E-04  -0.1046512348E-04   0.1218786068E-03  -0.2093024697E-04   0.4250161498E-01  -0.1727022504E-01   0.0000000000E+00  -0.1868288562E-01
   0.1152591798E+00   0.5209444476E-01   0.6854094216E-04  -0.6208779667E-05   0.1370818843E-03  -0.1241755933E-04   0.2474972036E-01  -0.2219447587E-01   0.0000000000E+00  -0.1632297030E-01
   0.2640188627E+00   0.1949509700E+00   0.7687990350E-04  -0.7618675417E-05   0.1537598070E-03  -0.1523735083E-04   0.8228602354E-01   0.3634309805E-03   0.0000000000E+00  -0.3368179695E-02
   0.1476563420E+00   0.8122009354E-01   0.6499066437E-04  -0.5040521156E-05   0.1299813287E-03  -0.1008104231E-04   0.5499796507E-01  -0.1386329730E-01   0.0000000000E+00  -0.1902139663E-01
   0.1354299717E+00   0.7049238008E-01   0.6564723802E-04  -0.5187839765E-05   0.1312944760E-03  -0.1037567953E-04   0.4679288858E-01  -0.1647281533E-01   0.0000000000E+00  -0.2071470971E-01
   0.1533699020E+00   0.6671644373E-01   0.6956798472E-04  -0.3274522727E-05   0.1391359694E-03  -0.6549045453E-05   0.4349981507E-01  -0.1082763808E-01   0.0000000000E+00  -0.1923210111E-01
   0.1537164777E+00   0.7695306640E-01   0.6719523955E-04  -0.4123301330E-05   0.1343904791E-03  -0.8246602661E-05   0.5109872268E-01  -0.1203498321E-01   0.0000000000E+00  -0.1885558575E-01
   0.1415429080E+00   0.7585632418E-01   0.6523601133E-04  -0.5085039500E-05   0.1304720227E-03  -0.1017007900E-04   0.5131446871E-01  -0.1479578280E-01   0.0000000000E+00  -0.1993432943E-01
   0.1411973424E+00   0.6561999047E-01   0.6794547219E-04  -0.4139942097E-05   0.1358909444E-03  -0.8279884194E-05   0.4221695519E-01  -0.1454595160E-01   0.0000000000E+00  -0.2033567820E-01
   0.1010687546E+00   0.1968854750E+00   0.2896452355E-04  -0.2706767251E-04   0.5792904711E-04  -0.5413534503E-04   0.8987047593E-01  -0.3149063483E-02   0.0000000000E+00   0.9819810957E-02
   0.9999333044E-01   0.2055036515E+00   0.2765314638E-04  -0.2812548644E-04   0.5530629277E-04  -0.5625097288E-04   0.8839210165E-01  -0.2251495684E-02   0.0000000000E+00   0.9308451600E-02
   0.1110306712E+00   0.1977273883E+00   0.3188472183E-04  -0.2520089650E-04   0.6376944366E-04  -0.5040179301E-04   0.8990221618E-01  -0.3794779449E-02   0.0000000000E+00   0.8462229880E-02
   0.8266214341E-01   0.1843705846E+00   0.2470383629E-04  -0.2950680734E-04   0.4940767257E-04  -0.5901361467E-04   0.9244848789E-01  -0.1916138002E-02   0.0000000000E+00   0.1131654028E-01
   0.7240475763E-01   0.1870646924E+00   0.2128397679E-04  -0.3180418755E-04   0.4256795357E-04  -0.6360837509E-04   0.9156248731E-01  -0.6231600666E-04   0.0000000000E+00   0.1184514050E-01
   0.8956623699E-01   0.1951130002E+00   0.2568669675E-04  -0.2917761487E-04   0.5137339349E-04  -0.5835522973E-04   0.8980290994E-01  -0.2187041974E-02   0.0000000000E+00   0.1074956081E-01
   0.1289168445E+00   0.5200058546E-01   0.7004050260E-04  -0.4194845535E-05   0.1400810052E-03  -0.8389691071E-05   0.2738479039E-01  -0.1837363641E-01   0.0000000000E+00  -0.1928291069E-01
   0.2665787152E+00   0.9249531640E-01   0.8508940534E-04  -0.1298332902E-05   0.1701788107E-03  -0.2596665804E-05   0.5553161573E-01   0.5969966870E-02   0.0000000000E+00  -0.6923838332E-02
   0.2675043283E+00   0.1108241503E+00   0.8392144403E-04  -0.2029908288E-05   0.1678428881E-03  -0.4059816576E-05   0.6054236967E-01   0.4481536881E-02   0.0000000000E+00  -0.6733004580E-02
   0.2649069836E+00   0.7390345571E-01   0.8608252412E-04  -0.7452638721E-06   0.1721650482E-03  -0.1490527744E-05   0.5063454340E-01   0.7514947030E-02   0.0000000000E+00  -0.6693474620E-02
   0.2543821578E+00   0.6458088940E-01   0.8506391910E-04  -0.5979003333E-06   0.1701278382E-03  -0.1195800667E-05   0.4778928227E-01   0.7499563583E-02   0.0000000000E+00  -0.7157492496E-02
   0.1236440871E+00   0.1823032507E+00   0.3770104556E-04  -0.2113942906E-04   0.7540209111E-04  -0.4227885811E-04   0.9095061268E-01  -0.6525898652E-02   0.0000000000E+00   0.6250961948E-02
   0.1326094022E+00   0.1826821487E+00   0.4041374955E-04  -0.1956276586E-04   0.8082749910E-04  -0.3912553173E-04   0.9013269546E-01  -0.6657984201E-02   0.0000000000E+00   0.4804445869E-02
   0.1223182894E+00   0.1904361200E+00   0.3623679859E-04  -0.2228366963E-04   0.7247359719E-04  -0.4456733926E-04   0.9053397556E-01  -0.5241915504E-02   0.0000000000E+00   0.6790069580E-02
   0.1612644933E+00   0.1679135158E+00   0.5113042116E-04  -0.1342440688E-04   0.1022608423E-03  -0.2684881375E-04   0.8571601668E-01  -0.7717308028E-02   0.0000000000E+00  -0.1153563752E-02
   0.1783131550E+00   0.1698145321E+00   0.5579133362E-04  -0.1152197895E-04   0.1115826672E-03  -0.2304395790E-04   0.8372920102E-01  -0.5962612361E-02   0.0000000000E+00  -0.2729278635E-02
   0.1605456470E+00   0.1758892044E+00   0.4978967485E-04  -0.1440086520E-04   0.9957934970E-04  -0.2880173041E-04   0.8684265650E-01  -0.6673792091E-02   0.0000000000E+00  -0.5005348446E-04
   0.1697888735E+00   0.1688641579E+00   0.5347749200E-04  -0.1242835681E-04   0.1069549840E-03  -0.2485671362E-04   0.8471064543E-01  -0.6847646771E-02   0.0000000000E+00  -0.1981786743E-02
   0.1781431827E+00   0.1771813281E+00   0.5475490232E-04  -0.1230031335E-04   0.1095098046E-03  -0.2460062670E-04   0.8498469322E-01  -0.5242916338E-02   0.0000000000E+00  -0.1866277337E-02
   0.8815656537E-01   0.1397616570E+00   0.3275998956E-04  -0.2325067829E-04   0.6551997912E-04  -0.4650135658E-04   0.1007153440E+00  -0.8622801324E-02   0.0000000000E+00   0.4096218047E-02
   0.8071195276E-01   0.1351384655E+00   0.3110845394E-04  -0.2442351117E-04   0.6221690787E-04  -0.4884702233E-04   0.1040099994E+00  -0.6553471292E-02   0.0000000000E+00   0.3551119404E-02
   0.8427286762E-01   0.1462383701E+00   0.3022903999E-04  -0.2495998086E-04   0.6045807999E-04  -0.4991996171E-04   0.1012048092E+00  -0.6192783182E-02   0.0000000000E+00   0.6497962185E-02
   0.9954412424E-01   0.8892462943E-01   0.5164541444E-04  -0.1369235704E-04   0.1032908289E-03  -0.2738471409E-04   0.7355678818E-01  -0.1595616276E-01   0.0000000000E+00  -0.1824848941E-01
   0.9179615056E-01   0.8426982418E-01   0.5169401837E-04  -0.1517100621E-04   0.1033880367E-03  -0.3034201242E-04   0.6727880191E-01  -0.1096099777E-01   0.0000000000E+00  -0.2001583310E-01
   0.1048834086E+00   0.8100022693E-01   0.5606519381E-04  -0.1146785623E-04   0.1121303876E-03  -0.2293571245E-04   0.6145936079E-01  -0.1773668276E-01   0.0000000000E+00  -0.1951214587E-01
   0.2631319706E+00   0.1759782223E+00   0.7798087923E-04  -0.6166233679E-05   0.1559617585E-03  -0.1233246736E-04   0.7785870650E-01   0.7107084780E-03   0.0000000000E+00  -0.4327656593E-02
   0.9649119260E-01   0.1275936506E+00   0.3827273190E-04  -0.1968979056E-04   0.7654546381E-04  -0.3937958112E-04   0.9772631846E-01  -0.1265698778E-01   0.0000000000E+00  -0.1470753774E-02
   0.8868760325E-01   0.1224019496E+00   0.3693651517E-04  -0.2081812711E-04   0.7387303035E-04  -0.4163625422E-04   0.9996427223E-01  -0.1106028355E-01   0.0000000000E+00  -0.2833342089E-02
   0.9232369566E-01   0.1336776169E+00   0.3545648509E-04  -0.2148237944E-04   0.7091297019E-04  -0.4296475887E-04   0.9991155458E-01  -0.1035187869E-01   0.0000000000E+00   0.1541338734E-02
   0.2507639774E+00   0.1600796690E+00   0.7612345158E-04  -0.5450347421E-05   0.1522469032E-03  -0.1090069484E-04   0.7456148188E-01   0.4234864228E-03   0.0000000000E+00  -0.5564577623E-02
   0.2606646932E+00   0.1561767115E+00   0.7887405182E-04  -0.4819493770E-05   0.1577481036E-03  -0.9638987540E-05   0.7303316479E-01   0.1207739151E-02   0.0000000000E+00  -0.5415962512E-02
   0.2716546120E+00   0.1633814528E+00   0.8102465098E-04  -0.4983415467E-05   0.1620493020E-03  -0.9966830935E-05   0.7432696017E-01   0.1592149262E-02   0.0000000000E+00  -0.4656629404E-02
   0.2521417357E+00   0.1687733599E+00   0.7572488917E-04  -0.6042707828E-05   0.1514497783E-03  -0.1208541566E-04   0.7667915357E-01   0.3174594504E-03   0.0000000000E+00  -0.5007382098E-02
   0.2595961895E+00   0.1275260344E+00   0.8096982513E-04  -0.3043200158E-05   0.1619396503E-03  -0.6086400316E-05   0.6534492738E-01   0.2616787272E-02   0.0000000000E+00  -0.6843756950E-02
   0.2675371101E+00   0.1290114679E+00   0.8256004168E-04  -0.2945022865E-05   0.1651200834E-03  -0.5890045730E-05   0.6553164176E-01   0.3159955507E-02   0.0000000000E+00  -0.6251982249E-02
   0.2592221264E+00   0.1189028051E+00   0.8161079953E-04  -0.2581975791E-05   0.1632215991E-03  -0.5163951582E-05   0.6296071027E-01   0.3201662751E-02   0.0000000000E+00  -0.7144995635E-02
   0.1963544335E+00   0.1840111085E+00   0.5910784237E-04  -0.1104449304E-04   0.1182156847E-03  -0.2208898607E-04   0.8441033439E-01  -0.3320773488E-02   0.0000000000E+00  -0.2672776255E-02
   0.1871639166E+00   0.1842797831E+00   0.5644486516E-04  -0.1200595792E-04   0.1128897303E-03  -0.2401191583E-04   0.8526754315E-01  -0.3939210989E-02   0.0000000000E+00  -0.1911913380E-02
   0.1965375862E+00   0.1917441150E+00   0.5824941254E-04  -0.1176334706E-04   0.1164988251E-03  -0.2352669411E-04   0.8584383653E-01  -0.2773818582E-02   0.0000000000E+00  -0.2090668737E-02
   0.2585232369E+00   0.1414929701E+00   0.7956595077E-04  -0.3911643524E-05   0.1591319015E-03  -0.7823287047E-05   0.6928554039E-01   0.1739926385E-02   0.0000000000E+00  -0.6256715654E-02
   0.2461769805E+00   0.1446290090E+00   0.7642049832E-04  -0.4527325570E-05   0.1528409966E-03  -0.9054651139E-05   0.7079179817E-01   0.5203968883E-03   0.0000000000E+00  -0.6674561441E-02
   0.2645441186E+00   0.1468832438E+00   0.8052219028E-04  -0.4084736960E-05   0.1610443806E-03  -0.8169473920E-05   0.7041339909E-01   0.1894739116E-02   0.0000000000E+00  -0.5720521703E-02
   0.2484704124E+00   0.1523543573E+00   0.7624979339E-04  -0.4982553972E-05   0.1524995868E-03  -0.9965107943E-05   0.7274282292E-01   0.4830416909E-03   0.0000000000E+00  -0.6096009078E-02
   0.2523501654E+00   0.1430610313E+00   0.7800713997E-04  -0.4205573297E-05   0.1560142799E-03  -0.8411146593E-05   0.7002725882E-01   0.1162738568E-02   0.0000000000E+00  -0.6461994143E-02
   0.2056252498E+00   0.1828334845E+00   0.6186428068E-04  -0.1009083794E-04   0.1237285614E-03  -0.2018167589E-04   0.8338133138E-01  -0.2726814323E-02   0.0000000000E+00  -0.3292514245E-02
   0.1145862563E+00   0.1814123398E+00   0.3500510454E-04  -0.2275872444E-04   0.7001020908E-04  -0.4551744888E-04   0.9161616946E-01  -0.6280144244E-02   0.0000000000E+00   0.7491522647E-02
   0.1032984788E+00   0.1887032666E+00   0.3059991802E-04  -0.2577981593E-04   0.6119983603E-04  -0.5155963185E-04   0.9132831752E-01  -0.4303869452E-02   0.0000000000E+00   0.9410381875E-02
   0.1918588124E+00   0.1589624173E+00   0.6103981450E-04  -0.9048897305E-05   0.1220796290E-03  -0.1809779461E-04   0.7981737245E-01  -0.5302013892E-02   0.0000000000E+00  -0.5148098414E-02
   0.1946868814E+00   0.1697606003E+00   0.6039645897E-04  -0.9834581053E-05   0.1207929179E-03  -0.1966916211E-04   0.8180186398E-01  -0.4330108462E-02   0.0000000000E+00  -0.3965484525E-02
   0.1799468674E+00   0.1552665684E+00   0.5830246765E-04  -0.9834527098E-05   0.1166049353E-03  -0.1966905420E-04   0.8071159346E-01  -0.7040466431E-02   0.0000000000E+00  -0.4921236074E-02
   0.1932728051E+00   0.1643614984E+00   0.6070437282E-04  -0.9445188003E-05   0.1214087456E-03  -0.1889037601E-04   0.8083670729E-01  -0.4850506810E-02   0.0000000000E+00  -0.4562478973E-02
   0.1865000610E+00   0.1697876787E+00   0.5811066095E-04  -0.1063809303E-04   0.1162213219E-03  -0.2127618607E-04   0.8274611195E-01  -0.5182185208E-02   0.0000000000E+00  -0.3385732901E-02
   0.1791299577E+00   0.1625405601E+00   0.5703155945E-04  -0.1067729649E-04   0.1140631189E-03  -0.2135459298E-04   0.8229519925E-01  -0.6475668401E-02   0.0000000000E+00  -0.3796021666E-02
   0.1859028490E+00   0.1571145406E+00   0.5967431936E-04  -0.9425806496E-05   0.1193486387E-03  -0.1885161299E-04   0.8022137432E-01  -0.6108218109E-02   0.0000000000E+00  -0.5030687549E-02
   0.2035460542E+00   0.1667140332E+00   0.6320307398E-04  -0.8774936994E-05   0.1264061480E-03  -0.1754987399E-04   0.8013976954E-01  -0.3714902805E-02   0.0000000000E+00  -0.4758557138E-02
   0.2136504123E+00   0.1726613522E+00   0.6523478228E-04  -0.8527252898E-05   0.1304695646E-03  -0.1705450580E-04   0.8049513823E-01  -0.2504263204E-02   0.0000000000E+00  -0.4574202138E-02
   0.1955206174E+00   0.1768858395E+00   0.5973646465E-04  -0.1044215132E-04   0.1194729293E-03  -0.2088430263E-04   0.8311698187E-01  -0.3843456526E-02   0.0000000000E+00  -0.3303632090E-02
   0.2386749665E+00   0.1456744488E+00   0.7453983150E-04  -0.4898723973E-05   0.1490796630E-03  -0.9797447946E-05   0.7161568283E-01  -0.2214290786E-03   0.0000000000E+00  -0.6835024861E-02
   0.2415634248E+00   0.1615827231E+00   0.7368627507E-04  -0.5955638462E-05   0.1473725501E-03  -0.1191127692E-04   0.7556785956E-01  -0.3173895054E-03   0.0000000000E+00  -0.5622326394E-02
   0.1010865004E+00   0.1485029914E+00   0.3551546271E-04  -0.2150219669E-04   0.7103092541E-04  -0.4300439338E-04   0.9679116244E-01  -0.1023271101E-01   0.0000000000E+00   0.4517706032E-02
   0.9772285191E-01   0.1547348404E+00   0.3335913597E-04  -0.2302052174E-04   0.6671827195E-04  -0.4604104347E-04   0.9700610408E-01  -0.8392908030E-02   0.0000000000E+00   0.6469733737E-02
   0.9462152997E-01   0.1441324243E+00   0.3413552383E-04  -0.2234556855E-04   0.6827104766E-04  -0.4469113710E-04   0.9857865846E-01  -0.9617951893E-02   0.0000000000E+00   0.4445884111E-02
   0.1522838207E+00   0.1669996981E+00   0.4860856681E-04  -0.1458297283E-04   0.9721713362E-04  -0.2916594566E-04   0.8702062914E-01  -0.8446773532E-02   0.0000000000E+00  -0.8928719634E-04
   0.1424387309E+00   0.1745731249E+00   0.4454162601E-04  -0.1697702855E-04   0.8908325203E-04  -0.3395405710E-04   0.8900582621E-01  -0.7741232960E-02   0.0000000000E+00   0.2330444708E-02
   0.1655233213E+00   0.5707213561E-01   0.7334877837E-04  -0.1954863542E-05   0.1466975567E-03  -0.3909727083E-05   0.3741647537E-01  -0.6244288442E-02   0.0000000000E+00  -0.1721733549E-01
   0.1288458875E+00   0.6430172336E-01   0.6641517635E-04  -0.5348980157E-05   0.1328303527E-03  -0.1069796031E-04   0.4086934157E-01  -0.1733954191E-01   0.0000000000E+00  -0.2055679907E-01
   0.2006096443E+00   0.7797471679E-01   0.7516309526E-04  -0.1928868369E-05   0.1503261905E-03  -0.3857736738E-05   0.5003157085E-01  -0.1065591340E-02   0.0000000000E+00  -0.1361386822E-01
   0.1976237326E+00   0.6807078362E-01   0.7611619442E-04  -0.1510191684E-05   0.1522323888E-03  -0.3020383369E-05   0.4572198081E-01  -0.3132917184E-03   0.0000000000E+00  -0.1359549926E-01
   0.1924721533E+00   0.8015295884E-01   0.7344076814E-04  -0.2314586376E-05   0.1468815363E-03  -0.4629172752E-05   0.5128555890E-01  -0.2950370037E-02   0.0000000000E+00  -0.1448511909E-01
   0.2095082298E+00   0.7675370188E-01   0.7681694528E-04  -0.1632972019E-05   0.1536338906E-03  -0.3265944037E-05   0.4976470183E-01   0.6683886504E-03   0.0000000000E+00  -0.1250182502E-01
   0.2205411163E+00   0.8485535665E-01   0.7767375248E-04  -0.1760382150E-05   0.1553475050E-03  -0.3520764299E-05   0.5294216137E-01   0.1591304596E-02   0.0000000000E+00  -0.1124705754E-01
   0.2115653726E+00   0.1146591854E+00   0.7203118770E-04  -0.3860865946E-05   0.1440623754E-03  -0.7721731892E-05   0.6428740192E-01  -0.2421890704E-02   0.0000000000E+00  -0.1059581517E-01
   0.2067982587E+00   0.9688687188E-01   0.7354323274E-04  -0.2841606170E-05   0.1470864655E-03  -0.5683212339E-05   0.5792847927E-01  -0.1923322618E-02   0.0000000000E+00  -0.1233044198E-01
   0.2189699106E+00   0.1134754645E+00   0.7377552599E-04  -0.3464515826E-05   0.1475510520E-03  -0.6929031652E-05   0.6333661790E-01  -0.1201099234E-02   0.0000000000E+00  -0.1020954425E-01
   0.2091817323E+00   0.1057730686E+00   0.7275944782E-04  -0.3338131168E-05   0.1455188956E-03  -0.6676262336E-05   0.6129992328E-01  -0.2127728541E-02   0.0000000000E+00  -0.1145473020E-01
   0.2147370001E+00   0.9553253106E-01   0.7526137244E-04  -0.2485347512E-05   0.1505227449E-03  -0.4970695025E-05   0.5710299541E-01  -0.4614328675E-03   0.0000000000E+00  -0.1164153546E-01
   0.9005174633E-01   0.1039445925E+00   0.4317311027E-04  -0.1798817557E-04   0.8634622053E-04  -0.3597635114E-04   0.9226893255E-01  -0.1221186962E-01   0.0000000000E+00  -0.1216316358E-01
   0.9479792671E-01   0.9643470868E-01   0.4740640219E-04  -0.1580640577E-04   0.9481280438E-04  -0.3161281154E-04   0.8275221182E-01  -0.1398418381E-01   0.0000000000E+00  -0.1520942415E-01
   0.8105286577E-01   0.9901043267E-01   0.4226338866E-04  -0.1980037601E-04   0.8452677731E-04  -0.3960075202E-04   0.9134830360E-01  -0.6905211069E-02   0.0000000000E+00  -0.1644917482E-01
   0.1246545922E+00   0.8336306394E-01   0.5959740643E-04  -0.8041554406E-05   0.1191948129E-03  -0.1608310881E-04   0.6082754090E-01  -0.1871478992E-01   0.0000000000E+00  -0.1959371147E-01
   0.1300426155E+00   0.7692799423E-01   0.6273481845E-04  -0.6525188877E-05   0.1254696369E-03  -0.1305037775E-04   0.5333653630E-01  -0.1784574499E-01   0.0000000000E+00  -0.2036585415E-01
   0.1174378644E+00   0.7821955699E-01   0.5978179183E-04  -0.8604871238E-05   0.1195635837E-03  -0.1720974248E-04   0.5619397885E-01  -0.1867981346E-01   0.0000000000E+00  -0.2016038918E-01
   0.8546785173E-01   0.1105771964E+00   0.3937601107E-04  -0.2004185470E-04   0.7875202214E-04  -0.4008370939E-04   0.9832459377E-01  -0.9551992717E-02   0.0000000000E+00  -0.8172604576E-02
   0.1088909703E+00   0.1151460150E+00   0.4555677745E-04  -0.1521033871E-04   0.9111355490E-04  -0.3042067743E-04   0.8931678663E-01  -0.1672912957E-01   0.0000000000E+00  -0.8265245438E-02
   0.9947102600E-01   0.1095457085E+00   0.4425423202E-04  -0.1646550344E-04   0.8850846404E-04  -0.3293100688E-04   0.8976828345E-01  -0.1545080932E-01   0.0000000000E+00  -0.9946991630E-02
   0.1026910268E+00   0.1213699149E+00   0.4189793101E-04  -0.1742369335E-04   0.8379586203E-04  -0.3484738670E-04   0.9363624523E-01  -0.1464978636E-01   0.0000000000E+00  -0.4757596482E-02
   0.2332395629E+00   0.1714413228E+00   0.7058730514E-04  -0.7160399166E-05   0.1411746103E-03  -0.1432079833E-04   0.7857916335E-01  -0.9905733190E-03   0.0000000000E+00  -0.5014039145E-02
   0.2440490986E+00   0.1279791774E+00   0.7754954267E-04  -0.3505529890E-05   0.1550990853E-03  -0.7011059780E-05   0.6623031635E-01   0.1111803712E-02   0.0000000000E+00  -0.7778217199E-02
   0.2518226665E+00   0.1277526596E+00   0.7926950287E-04  -0.3259146319E-05   0.1585390057E-03  -0.6518292637E-05   0.6580375546E-01   0.1896328896E-02   0.0000000000E+00  -0.7311979704E-02
   0.2430706063E+00   0.1193241440E+00   0.7820242868E-04  -0.3011329953E-05   0.1564048574E-03  -0.6022659907E-05   0.6372745921E-01   0.1590193438E-02   0.0000000000E+00  -0.8255810942E-02
   0.1990768746E+00   0.1517183638E+00   0.6394052453E-04  -0.7743409944E-05   0.1278810491E-03  -0.1548681989E-04   0.7719036978E-01  -0.4718299036E-02   0.0000000000E+00  -0.6340002346E-02
   0.2055696326E+00   0.1444159616E+00   0.6658588289E-04  -0.6605455481E-05   0.1331717658E-03  -0.1321091096E-04   0.7442479392E-01  -0.3980377115E-02   0.0000000000E+00  -0.7441375776E-02
   0.2057408796E+00   0.1576927628E+00   0.6491285820E-04  -0.7777406956E-05   0.1298257164E-03  -0.1555481391E-04   0.7781011999E-01  -0.3736179404E-02   0.0000000000E+00  -0.5850825431E-02
   0.2023232750E+00   0.1480672091E+00   0.6527267028E-04  -0.7161648027E-05   0.1305453406E-03  -0.1432329605E-04   0.7572099329E-01  -0.4429270902E-02   0.0000000000E+00  -0.6967336023E-02
   0.2110426040E+00   0.1455834930E+00   0.6780733213E-04  -0.6343673090E-05   0.1356146643E-03  -0.1268734618E-04   0.7412687963E-01  -0.3347450513E-02   0.0000000000E+00  -0.7293199553E-02
   0.1246250453E+00   0.1742797557E+00   0.3909676347E-04  -0.2003509424E-04   0.7819352693E-04  -0.4007018849E-04   0.9121688089E-01  -0.7831560355E-02   0.0000000000E+00   0.5152367954E-02
   0.1926028896E+00   0.1008094005E+00   0.7008586370E-04  -0.3738493866E-05   0.1401717274E-03  -0.7476987732E-05   0.6072268091E-01  -0.4898458691E-02   0.0000000000E+00  -0.1318812145E-01
   0.2037038812E+00   0.8743085207E-01   0.7432738874E-04  -0.2366011451E-05   0.1486547775E-03  -0.4732022903E-05   0.5422648459E-01  -0.1442258777E-02   0.0000000000E+00  -0.1298370267E-01
   0.1997006615E+00   0.9884822678E-01   0.7184617816E-04  -0.3259838374E-05   0.1436923563E-03  -0.6519676747E-05   0.5930518314E-01  -0.3405288191E-02   0.0000000000E+00  -0.1277602112E-01
   0.1884684680E+00   0.9157021932E-01   0.7080433214E-04  -0.3246492199E-05   0.1416086643E-03  -0.6492984398E-05   0.5691696554E-01  -0.4846189507E-02   0.0000000000E+00  -0.1430066248E-01
   0.1418517255E+00   0.1241811964E+00   0.5315316165E-04  -0.1081051820E-04   0.1063063233E-03  -0.2162103640E-04   0.8085985964E-01  -0.1461665059E-01   0.0000000000E+00  -0.8765507785E-02
   0.1460378393E+00   0.1118631282E+00   0.5704908729E-04  -0.8699930789E-05   0.1140981746E-03  -0.1739986158E-04   0.7463886255E-01  -0.1478960990E-01   0.0000000000E+00  -0.1248477425E-01
   0.1587781762E+00   0.1176451200E+00   0.5911307540E-04  -0.7933013330E-05   0.1182261508E-03  -0.1586602666E-04   0.7383143637E-01  -0.1229938272E-01   0.0000000000E+00  -0.1140763546E-01
   0.1542600299E+00   0.1313472237E+00   0.5518564057E-04  -0.1006842214E-04   0.1103712811E-03  -0.2013684427E-04   0.7986918408E-01  -0.1240424605E-01   0.0000000000E+00  -0.7823895685E-02
   0.1439447523E+00   0.1180222135E+00   0.5508878042E-04  -0.9737150213E-05   0.1101775608E-03  -0.1947430043E-04   0.7781915925E-01  -0.1469045825E-01   0.0000000000E+00  -0.1060722809E-01
   0.1524079736E+00   0.1147541831E+00   0.5806952968E-04  -0.8295624184E-05   0.1161390594E-03  -0.1659124837E-04   0.7415750661E-01  -0.1353636817E-01   0.0000000000E+00  -0.1189098501E-01
   0.1565190766E+00   0.1244962380E+00   0.5713820460E-04  -0.8980010712E-05   0.1142764092E-03  -0.1796002142E-04   0.7697319315E-01  -0.1231886239E-01   0.0000000000E+00  -0.9590872089E-02
   0.1480558381E+00   0.1277642627E+00   0.5415637741E-04  -0.1042309396E-04   0.1083127548E-03  -0.2084618791E-04   0.8029215385E-01  -0.1348609520E-01   0.0000000000E+00  -0.8198701274E-02
   0.1176283370E+00   0.1661554434E+00   0.3806299723E-04  -0.2037954519E-04   0.7612599446E-04  -0.4075909037E-04   0.9242562766E-01  -0.8953607578E-02   0.0000000000E+00   0.5273463071E-02
   0.1639281897E+00   0.1519457854E+00   0.5432255758E-04  -0.1128486377E-04   0.1086451152E-03  -0.2256972754E-04   0.8261479467E-01  -0.9275954771E-02   0.0000000000E+00  -0.4180012775E-02
   0.1543382238E+00   0.1496325657E+00   0.5193994693E-04  -0.1225610214E-04   0.1038798939E-03  -0.2451220428E-04   0.8421120952E-01  -0.1055949418E-01   0.0000000000E+00  -0.3562318920E-02
   0.1625962586E+00   0.1599296443E+00   0.5270152667E-04  -0.1235423939E-04   0.1054030533E-03  -0.2470847877E-04   0.8441897393E-01  -0.8419901387E-02   0.0000000000E+00  -0.2599021219E-02
   0.1115062334E+00   0.1548877450E+00   0.3784980941E-04  -0.2016800726E-04   0.7569961882E-04  -0.4033601453E-04   0.9412150188E-01  -0.1042101430E-01   0.0000000000E+00   0.4244445776E-02
   0.1105782158E+00   0.1604710004E+00   0.3666392379E-04  -0.2106251955E-04   0.7332784757E-04  -0.4212503911E-04   0.9396598827E-01  -0.9326196276E-02   0.0000000000E+00   0.5453875222E-02
   0.1177500212E+00   0.1519707564E+00   0.4035071975E-04  -0.1856287679E-04   0.8070143951E-04  -0.3712575358E-04   0.9265841543E-01  -0.1146244478E-01   0.0000000000E+00   0.2449077993E-02
   0.1374080057E+00   0.1347053638E+00   0.4967622465E-04  -0.1284005650E-04   0.9935244931E-04  -0.2568011300E-04   0.8524807902E-01  -0.1386740009E-01   0.0000000000E+00  -0.5110869985E-02
   0.1396298206E+00   0.1294433098E+00   0.5140221479E-04  -0.1181438987E-04   0.1028044296E-03  -0.2362877974E-04   0.8318585939E-01  -0.1425539625E-01   0.0000000000E+00  -0.6855784777E-02
   0.1495040490E+00   0.1393332353E+00   0.5233734284E-04  -0.1166690171E-04   0.1046746857E-03  -0.2333380342E-04   0.8308293195E-01  -0.1208296848E-01   0.0000000000E+00  -0.5349900564E-02
   0.1410779437E+00   0.1410121656E+00   0.4955391504E-04  -0.1309679094E-04   0.9910783008E-04  -0.2619358189E-04   0.8561210825E-01  -0.1280232530E-01   0.0000000000E+00  -0.4009651988E-02
   0.2590597329E+00   0.1345095403E+00   0.8026963718E-04  -0.3464911240E-05   0.1605392744E-03  -0.6929822480E-05   0.6737366805E-01   0.2161916331E-02   0.0000000000E+00  -0.6549385680E-02
   0.1806920372E+00   0.1056400198E+00   0.6669441300E-04  -0.4834404846E-05   0.1333888260E-03  -0.9668809691E-05   0.6431443983E-01  -0.7631838948E-02   0.0000000000E+00  -0.1330518028E-01
   0.1866475507E+00   0.1032248013E+00   0.6842158286E-04  -0.4255890487E-05   0.1368431657E-03  -0.8511780975E-05   0.6247552555E-01  -0.6305408255E-02   0.0000000000E+00  -0.1327612840E-01
   0.1751470953E+00   0.9779089948E-01   0.6695876273E-04  -0.4499274199E-05   0.1339175255E-03  -0.8998548397E-05   0.6143085403E-01  -0.8268982502E-02   0.0000000000E+00  -0.1475276671E-01
   0.1511538542E+00   0.1000164531E+00   0.6110207370E-04  -0.6717639358E-05   0.1222041474E-03  -0.1343527872E-04   0.6708086804E-01  -0.1392474164E-01   0.0000000000E+00  -0.1548792585E-01
   0.1382811460E+00   0.9237563453E-01   0.6001998966E-04  -0.7272288399E-05   0.1200399793E-03  -0.1454457680E-04   0.6518914139E-01  -0.1647841864E-01   0.0000000000E+00  -0.1749606625E-01
   0.1559539661E+00   0.9053022455E-01   0.6441537679E-04  -0.5247549371E-05   0.1288307536E-03  -0.1049509874E-04   0.6017345051E-01  -0.1238490402E-01   0.0000000000E+00  -0.1712737114E-01
   0.1447173638E+00   0.9619611561E-01   0.6051792404E-04  -0.6971064198E-05   0.1210358481E-03  -0.1394212840E-04   0.6606510360E-01  -0.1512284155E-01   0.0000000000E+00  -0.1643666862E-01
   0.1429689339E+00   0.8679804484E-01   0.6256864062E-04  -0.6096118759E-05   0.1251372812E-03  -0.1219223752E-04   0.5987492610E-01  -0.1530661263E-01   0.0000000000E+00  -0.1835422501E-01
   0.1518050198E+00   0.8587517524E-01   0.6465825253E-04  -0.5138619372E-05   0.1293165051E-03  -0.1027723874E-04   0.5770364993E-01  -0.1297761015E-01   0.0000000000E+00  -0.1805653390E-01
   0.1535539688E+00   0.9527340948E-01   0.6277558402E-04  -0.5959072888E-05   0.1255511680E-03  -0.1191814578E-04   0.6358321385E-01  -0.1315570686E-01   0.0000000000E+00  -0.1635061456E-01
   0.1274072131E+00   0.1185335506E+00   0.5027803012E-04  -0.1225646320E-04   0.1005560602E-03  -0.2451292639E-04   0.8323421501E-01  -0.1659648202E-01   0.0000000000E+00  -0.9109440684E-02
   0.1260791390E+00   0.1330936881E+00   0.4657499798E-04  -0.1448797996E-04   0.9314999595E-04  -0.2897595992E-04   0.8809959292E-01  -0.1476944173E-01   0.0000000000E+00  -0.4066523430E-02
   0.1145692832E+00   0.1296692224E+00   0.4371473963E-04  -0.1614187675E-04   0.8742947927E-04  -0.3228375351E-04   0.9118782724E-01  -0.1500248217E-01   0.0000000000E+00  -0.3430497669E-02
   0.1181491737E+00   0.1168400561E+00   0.4794624442E-04  -0.1364230440E-04   0.9589248885E-04  -0.2728460881E-04   0.8573722031E-01  -0.1690906592E-01   0.0000000000E+00  -0.8609701919E-02
   0.1267430009E+00   0.1258136090E+00   0.4836831386E-04  -0.1337433760E-04   0.9673662771E-04  -0.2674867520E-04   0.8601628365E-01  -0.1556365217E-01   0.0000000000E+00  -0.6608642097E-02
   0.1203242309E+00   0.1313815419E+00   0.4515264251E-04  -0.1528837526E-04   0.9030528503E-04  -0.3057675051E-04   0.8969576210E-01  -0.1514221838E-01   0.0000000000E+00  -0.3713086099E-02
   0.1117298263E+00   0.1224076114E+00   0.4453578007E-04  -0.1567719791E-04   0.8907156014E-04  -0.3135439583E-04   0.9033749811E-01  -0.1573966455E-01   0.0000000000E+00  -0.5696517573E-02
   0.2291981538E+00   0.1294782497E+00   0.7408227415E-04  -0.4146085119E-05   0.1481645483E-03  -0.8292170239E-05   0.6762506464E-01  -0.6630820391E-03   0.0000000000E+00  -0.8442167640E-02
   0.2301854592E+00   0.1380990445E+00   0.7333707680E-04  -0.4718818430E-05   0.1466741536E-03  -0.9437636861E-05   0.7012800519E-01  -0.8301641453E-03   0.0000000000E+00  -0.7696348660E-02
   0.2366236719E+00   0.1287287709E+00   0.7583097886E-04  -0.3806712838E-05   0.1516619577E-03  -0.7613425675E-05   0.6693551430E-01   0.2592626986E-03   0.0000000000E+00  -0.8110766196E-02
   0.2451129929E+00   0.1363041379E+00   0.7697195064E-04  -0.4004036167E-05   0.1539439013E-03  -0.8008072334E-05   0.6854059800E-01   0.8291726862E-03   0.0000000000E+00  -0.7213112344E-02
   0.2013317021E+00   0.1332196154E+00   0.6707404265E-04  -0.5910523390E-05   0.1341480853E-03  -0.1182104678E-04   0.7164351823E-01  -0.4673664263E-02   0.0000000000E+00  -0.8874479687E-02
   0.1977225517E+00   0.1180949336E+00   0.6845522027E-04  -0.4846129592E-05   0.1369104405E-03  -0.9692259183E-05   0.6700296945E-01  -0.4892116071E-02   0.0000000000E+00  -0.1088170342E-01
   0.2151181756E+00   0.1311437796E+00   0.7064353628E-04  -0.4927130404E-05   0.1412870726E-03  -0.9854260808E-05   0.6940743781E-01  -0.2598342943E-02   0.0000000000E+00  -0.8823997347E-02
   0.1995270461E+00   0.1256572902E+00   0.6773769042E-04  -0.5374254861E-05   0.1354753808E-03  -0.1074850972E-04   0.6947017101E-01  -0.4763929498E-02   0.0000000000E+00  -0.9860135140E-02
   0.2046440437E+00   0.1163771486E+00   0.7027023600E-04  -0.4325137404E-05   0.1405404720E-03  -0.8650274808E-05   0.6564017474E-01  -0.3654897850E-02   0.0000000000E+00  -0.1075634530E-01
   0.2133417013E+00   0.1229015078E+00   0.7131309948E-04  -0.4385404506E-05   0.1426261990E-03  -0.8770809011E-05   0.6696827051E-01  -0.2472333653E-02   0.0000000000E+00  -0.9691366383E-02
   0.2082249975E+00   0.1321817642E+00   0.6887815896E-04  -0.5393926167E-05   0.1377563179E-03  -0.1078785233E-04   0.7051639537E-01  -0.3600031677E-02   0.0000000000E+00  -0.8847935665E-02
   0.1087099339E+00   0.1384589673E+00   0.3993364496E-04  -0.1854691069E-04   0.7986728992E-04  -0.3709382139E-04   0.9469793579E-01  -0.1312603806E-01   0.0000000000E+00   0.4701308105E-03
   0.1062963736E+00   0.1516954105E+00   0.3668619324E-04  -0.2081849634E-04   0.7337238648E-04  -0.4163699268E-04   0.9536264474E-01  -0.1043310600E-01   0.0000000000E+00   0.4435141128E-02
   0.1048981286E+00   0.1434809762E+00   0.3769619431E-04  -0.2002561106E-04   0.7539238862E-04  -0.4005122212E-04   0.9581264007E-01  -0.1155671382E-01   0.0000000000E+00   0.2543363831E-02
   0.1163518279E+00   0.1437564063E+00   0.4137795535E-04  -0.1774157569E-04   0.8275591069E-04  -0.3548315137E-04   0.9262020714E-01  -0.1270733945E-01   0.0000000000E+00   0.6276682337E-03
   0.2158168305E+00   0.1389473853E+00   0.6981850047E-04  -0.5507556817E-05   0.1396370009E-03  -0.1101511363E-04   0.7166429624E-01  -0.2608925365E-02   0.0000000000E+00  -0.7991158026E-02
   0.2221582228E+00   0.1303110859E+00   0.7237959123E-04  -0.4515360571E-05   0.1447591825E-03  -0.9030721142E-05   0.6852078540E-01  -0.1614314323E-02   0.0000000000E+00  -0.8636971078E-02
   0.1719375676E+00   0.1536062821E+00   0.5632553000E-04  -0.1052462248E-04   0.1126510600E-03  -0.2104924497E-04   0.8165794836E-01  -0.8105299384E-02   0.0000000000E+00  -0.4575926397E-02
   0.1689158075E+00   0.1364669584E+00   0.5826818290E-04  -0.8977541916E-05   0.1165363658E-03  -0.1795508383E-04   0.7793783170E-01  -0.9859315262E-02   0.0000000000E+00  -0.7656976449E-02
   0.1864832766E+00   0.1396029867E+00   0.6240019163E-04  -0.7625099990E-05   0.1248003833E-03  -0.1525019998E-04   0.7571398600E-01  -0.6901155957E-02   0.0000000000E+00  -0.7786518804E-02
   0.1776995969E+00   0.1380350991E+00   0.6034997357E-04  -0.8261647046E-05   0.1206999471E-03  -0.1652329409E-04   0.7682424747E-01  -0.8339115518E-02   0.0000000000E+00  -0.7697941878E-02
   0.1832150746E+00   0.1474348524E+00   0.6035218365E-04  -0.8704857927E-05   0.1207043673E-03  -0.1740971585E-04   0.7827184853E-01  -0.6996437678E-02   0.0000000000E+00  -0.6391214665E-02
   0.1664219601E+00   0.1442064268E+00   0.5628002227E-04  -0.1011540543E-04   0.1125600445E-03  -0.2023081086E-04   0.8055034508E-01  -0.9484189496E-02   0.0000000000E+00  -0.5872368442E-02
   0.1628302628E+00   0.1046868536E+00   0.6280828207E-04  -0.6112802748E-05   0.1256165641E-03  -0.1222560550E-04   0.6706921771E-01  -0.1146609187E-01   0.0000000000E+00  -0.1425839084E-01
   0.1485958679E+00   0.1059398752E+00   0.5908264347E-04  -0.7680593618E-05   0.1181652869E-03  -0.1536118724E-04   0.7085935898E-01  -0.1436786432E-01   0.0000000000E+00  -0.1401638600E-01
   0.1569920314E+00   0.1023517052E+00   0.6194345865E-04  -0.6399273301E-05   0.1238869173E-03  -0.1279854660E-04   0.6696882249E-01  -0.1261982269E-01   0.0000000000E+00  -0.1483599178E-01
   0.1608042290E+00   0.1111660595E+00   0.6096133200E-04  -0.6998849084E-05   0.1219226640E-03  -0.1399769817E-04   0.7054386626E-01  -0.1188171575E-01   0.0000000000E+00  -0.1280782125E-01
   0.1845752995E+00   0.1214477633E+00   0.6483315812E-04  -0.6020581559E-05   0.1296663162E-03  -0.1204116312E-04   0.7013829683E-01  -0.7406361490E-02   0.0000000000E+00  -0.1074088770E-01
   0.1717288316E+00   0.1217919649E+00   0.6161018409E-04  -0.7115708173E-05   0.1232203682E-03  -0.1423141635E-04   0.7258514500E-01  -0.9824073485E-02   0.0000000000E+00  -0.1069385605E-01
   0.1855291759E+00   0.1305253894E+00   0.6357930815E-04  -0.6816859596E-05   0.1271586163E-03  -0.1363371919E-04   0.7308715974E-01  -0.7141737814E-02   0.0000000000E+00  -0.9260533676E-02
   0.1703222756E+00   0.1291295130E+00   0.5992454791E-04  -0.8032001438E-05   0.1198490958E-03  -0.1606400288E-04   0.7545918010E-01  -0.9768357628E-02   0.0000000000E+00  -0.9156267361E-02
   0.1781521112E+00   0.1216199385E+00   0.6323940845E-04  -0.6542152836E-05   0.1264788169E-03  -0.1308430567E-04   0.7134593395E-01  -0.8576313162E-02   0.0000000000E+00  -0.1072148501E-01
   0.1157672991E+00   0.9811029318E-01   0.5267271109E-04  -0.1145987454E-04   0.1053454222E-03  -0.2291974908E-04   0.7632662532E-01  -0.1854690069E-01   0.0000000000E+00  -0.1556444317E-01
   0.1202110944E+00   0.9073687403E-01   0.5618481254E-04  -0.9685555276E-05   0.1123696251E-03  -0.1937111055E-04   0.6836930118E-01  -0.1870635707E-01   0.0000000000E+00  -0.1768644886E-01
   0.1076553392E+00   0.9351785347E-01   0.5203506841E-04  -0.1244541086E-04   0.1040701368E-03  -0.2489082172E-04   0.7438234635E-01  -0.1781116264E-01   0.0000000000E+00  -0.1661469787E-01
   0.1911490090E+00   0.1197714406E+00   0.6667200088E-04  -0.5402452008E-05   0.1333440018E-03  -0.1080490402E-04   0.6855840006E-01  -0.6175967840E-02   0.0000000000E+00  -0.1084785924E-01
   0.1826335601E+00   0.1135439043E+00   0.6572770471E-04  -0.5421900090E-05   0.1314554094E-03  -0.1084380018E-04   0.6744110016E-01  -0.7463939880E-02   0.0000000000E+00  -0.1202324663E-01
   0.1951625983E+00   0.1094521961E+00   0.6923210024E-04  -0.4283980449E-05   0.1384642005E-03  -0.8567960897E-05   0.6406872298E-01  -0.4861647782E-02   0.0000000000E+00  -0.1201763473E-01
   0.2277861793E+00   0.1208849670E+00   0.7476275172E-04  -0.3617004929E-05   0.1495255034E-03  -0.7234009858E-05   0.6510686694E-01  -0.3377197470E-03   0.0000000000E+00  -0.9122818539E-02
   0.1026004530E+00   0.1330264111E+00   0.3906499273E-04  -0.1908663717E-04   0.7812998546E-04  -0.3817327434E-04   0.9583799393E-01  -0.1316026745E-01   0.0000000000E+00  -0.4764442027E-03
   0.1939076015E+00   0.1364114381E+00   0.6477448845E-04  -0.6722287893E-05   0.1295489769E-03  -0.1344457579E-04   0.7368410332E-01  -0.5753311439E-02   0.0000000000E+00  -0.8330650227E-02
   0.2034506026E+00   0.1388177840E+00   0.6681085058E-04  -0.6259679121E-05   0.1336217012E-03  -0.1251935824E-04   0.7305765132E-01  -0.4299685198E-02   0.0000000000E+00  -0.8103093546E-02
   0.1927799801E+00   0.1456606849E+00   0.6313870770E-04  -0.7683712152E-05   0.1262774154E-03  -0.1536742430E-04   0.7650393562E-01  -0.5775980714E-02   0.0000000000E+00  -0.7046674980E-02
   0.1123289765E+00   0.1066282499E+00   0.4906215190E-04  -0.1330304638E-04   0.9812430380E-04  -0.2660609276E-04   0.8310937172E-01  -0.1756150954E-01   0.0000000000E+00  -0.1192947874E-01
   0.1315840823E+00   0.1052855151E+00   0.5484277095E-04  -0.9805958733E-05   0.1096855419E-03  -0.1961191747E-04   0.7552319680E-01  -0.1725502350E-01   0.0000000000E+00  -0.1388443325E-01
   0.1314676284E+00   0.8786949949E-01   0.5972981100E-04  -0.7608070119E-05   0.1194596220E-03  -0.1521614024E-04   0.6296696124E-01  -0.1736575322E-01   0.0000000000E+00  -0.1849514397E-01
   0.1349326713E+00   0.9883070467E-01   0.5745044630E-04  -0.8497042127E-05   0.1149008926E-03  -0.1699408425E-04   0.7031829034E-01  -0.1690015250E-01   0.0000000000E+00  -0.1574488564E-01
   0.1236755629E+00   0.1016981180E+00   0.5371629625E-04  -0.1056165309E-04   0.1074325925E-03  -0.2112330617E-04   0.7553645295E-01  -0.1810523390E-01   0.0000000000E+00  -0.1455562278E-01
   0.1615879274E+00   0.1339071701E+00   0.5672979595E-04  -0.9496635139E-05   0.1134595919E-03  -0.1899327028E-04   0.7886751320E-01  -0.1104763329E-01   0.0000000000E+00  -0.7694524654E-02
   0.1720374146E+00   0.1103244588E+00   0.6383887312E-04  -0.5912738547E-05   0.1276777462E-03  -0.1182547709E-04   0.6797583772E-01  -0.9616290318E-02   0.0000000000E+00  -0.1288645279E-01
   0.1763647856E+00   0.1079822973E+00   0.6528887041E-04  -0.5352911014E-05   0.1305777408E-03  -0.1070582203E-04   0.6608041592E-01  -0.8694739917E-02   0.0000000000E+00  -0.1311687720E-01
   0.1674337945E+00   0.1075056694E+00   0.6330883002E-04  -0.6008544484E-05   0.1266176600E-03  -0.1201708897E-04   0.6740765259E-01  -0.1052113369E-01   0.0000000000E+00  -0.1350043887E-01
   0.1662165562E+00   0.9731446588E-01   0.6512939102E-04  -0.5089972102E-05   0.1302587820E-03  -0.1017994420E-04   0.6245903744E-01  -0.1032603597E-01   0.0000000000E+00  -0.1534585841E-01
   0.1627783498E+00   0.9023610402E-01   0.6591360596E-04  -0.4671860782E-05   0.1318272119E-03  -0.9343721564E-05   0.5899090031E-01  -0.1078885277E-01   0.0000000000E+00  -0.1661789648E-01
   0.1718830856E+00   0.1160582297E+00   0.6271221132E-04  -0.6507105028E-05   0.1254244226E-03  -0.1301421006E-04   0.7035060797E-01  -0.9663726700E-02   0.0000000000E+00  -0.1181565380E-01
   0.1652534928E+00   0.1197185972E+00   0.6036061631E-04  -0.7504940509E-05   0.1207212326E-03  -0.1500988102E-04   0.7319122030E-01  -0.1105734031E-01   0.0000000000E+00  -0.1102854148E-01
   0.1294955764E+00   0.1119095887E+00   0.5253680552E-04  -0.1101275625E-04   0.1050736110E-03  -0.2202551249E-04   0.7968248101E-01  -0.1688723312E-01   0.0000000000E+00  -0.1144058879E-01
   0.1388108909E+00   0.1085744317E+00   0.5592498126E-04  -0.9215085404E-05   0.1118499625E-03  -0.1843017081E-04   0.7486424653E-01  -0.1602250036E-01   0.0000000000E+00  -0.1307703703E-01
   0.1346294673E+00   0.1213574920E+00   0.5171508833E-04  -0.1149400592E-04   0.1034301767E-03  -0.2298801184E-04   0.8191070632E-01  -0.1569988788E-01   0.0000000000E+00  -0.8868350631E-02
   0.1250362696E+00   0.1410736342E+00   0.4464387975E-04  -0.1575893824E-04   0.8928775950E-04  -0.3151787649E-04   0.8992353453E-01  -0.1337377637E-01   0.0000000000E+00  -0.1590089384E-02
   0.1317436077E+00   0.1338996030E+00   0.4813990795E-04  -0.1363832391E-04   0.9627981589E-04  -0.2727664782E-04   0.8659926370E-01  -0.1436102566E-01   0.0000000000E+00  -0.4603296210E-02
   0.1116395511E+00   0.1340641076E+00   0.4180503222E-04  -0.1734013527E-04   0.8361006444E-04  -0.3468027054E-04   0.9295208287E-01  -0.1401874875E-01   0.0000000000E+00  -0.1551962031E-02
   0.1954678748E+00   0.1553404387E+00   0.6250061625E-04  -0.8382448375E-05   0.1250012325E-03  -0.1676489675E-04   0.7852385305E-01  -0.5017281204E-02   0.0000000000E+00  -0.5719631738E-02
   0.9240277698E-02   0.1250211107E+00   0.4329601148E-05  -0.3704700341E-04   0.8659202296E-05  -0.7409400683E-04   0.1432070599E+00   0.2191783173E-01   0.0000000000E+00  -0.2386292888E-02
   0.8775383960E-01   0.2408823032E+00   0.1965456653E-04  -0.3353767579E-04   0.3930913307E-04  -0.6707535158E-04   0.7669469207E-01  -0.2548478370E-04   0.0000000000E+00   0.3427305382E-02
   0.9414166739E-02   0.2248975753E+00   0.2181947958E-05  -0.4225948408E-04   0.4363895916E-05  -0.8451896816E-04   0.7089811312E-01   0.2169465156E-02   0.0000000000E+00   0.3113994150E-02
   0.2495042480E+00   0.1014737801E+00   0.8121084924E-04  -0.1923500063E-05   0.1624216985E-03  -0.3847000125E-05   0.5546478390E-01   0.4322518503E-02   0.0000000000E+00  -0.8549278978E-02
   0.9533736887E-01   0.5094602441E-01   0.6727395766E-04  -0.1133195597E-04   0.1345479153E-03  -0.2266391194E-04  -0.5739172065E-02  -0.2196600636E-01   0.0000000000E+00   0.9460856700E-02
   0.1106319045E+00   0.1142304361E-01   0.7720672733E-04  -0.1963802270E-05   0.1544134547E-03  -0.3927604541E-05   0.7727084702E-04  -0.4465032886E-01   0.0000000000E+00  -0.4184819897E-04
   0.1989778213E+00   0.2844078747E-01   0.8073352125E-04  -0.2939863142E-06   0.1614670425E-03  -0.5879726284E-06   0.3316260639E-01   0.6024902954E-02   0.0000000000E+00  -0.6740345770E-02
   0.1473860525E+00   0.2241874624E+00   0.3947607324E-04  -0.2133378994E-04   0.7895214647E-04  -0.4266757989E-04   0.9063001931E-01  -0.2046468627E-02   0.0000000000E+00   0.3459491913E-02
   0.9708175042E-02   0.1078926774E+00   0.6261000605E-05  -0.3534039983E-04   0.1252200121E-04  -0.7068079966E-04   0.1985205536E+00   0.1271705730E-01   0.0000000000E+00   0.1374034701E-03
   0.8648416938E-02   0.1421129846E+00   0.3299367611E-05  -0.3799337172E-04   0.6598735222E-05  -0.7598674344E-04   0.1223045498E+00   0.2327531745E-01   0.0000000000E+00   0.1534937513E-03
   0.4195832611E-01   0.1451990872E+00   0.1542848823E-04  -0.3412352079E-04   0.3085697646E-04  -0.6824704158E-04   0.1174261020E+00   0.1182319780E-01   0.0000000000E+00   0.5140540053E-02
   0.8379324878E-02   0.1588354557E+00   0.2797880945E-05  -0.3872069986E-04   0.5595761891E-05  -0.7744139972E-04   0.1052347403E+00   0.1752910999E-01   0.0000000000E+00   0.4604811026E-02
   0.2544313280E-01   0.1760886384E+00   0.7715798507E-05  -0.3835328592E-04   0.1543159701E-04  -0.7670657184E-04   0.9127129246E-01   0.9897737733E-02   0.0000000000E+00   0.6879836639E-02
   0.2899474528E-01   0.2414403762E+00   0.5802633784E-05  -0.4213368105E-04   0.1160526757E-04  -0.8426736211E-04   0.5603178834E-01  -0.1976963450E-03   0.0000000000E+00   0.1046606572E-03
   0.2503734059E-01   0.1600082171E+00   0.8305147669E-05  -0.3752762392E-04   0.1661029534E-04  -0.7505524784E-04   0.9960176528E-01   0.1387901714E-01   0.0000000000E+00   0.6876576452E-02
   0.3400281516E+00   0.9486317601E-02   0.9859603044E-04  -0.3736340627E-08   0.1971920609E-03  -0.7472681254E-08   0.4480722874E-01   0.1321785776E-01   0.0000000000E+00  -0.2388984191E-03
   0.3402879259E+00   0.2852236708E-01   0.9859188698E-04  -0.3555751016E-07   0.1971837740E-03  -0.7111502032E-07   0.4586883392E-01   0.1278013152E-01   0.0000000000E+00  -0.6831911047E-03
   0.3213743808E+00   0.6597842626E-01   0.9541283422E-04  -0.3632880622E-06   0.1908256684E-03  -0.7265761244E-06   0.4905922474E-01   0.1131193567E-01   0.0000000000E+00  -0.1818132947E-02
   0.3217403013E+00   0.8518748415E-01   0.9508243960E-04  -0.7349252375E-06   0.1901648792E-03  -0.1469850475E-05   0.5246340065E-01   0.9973333386E-02   0.0000000000E+00  -0.2135979547E-02
   0.3217275374E+00   0.1241723503E+00   0.9415080333E-04  -0.2035823759E-05   0.1883016067E-03  -0.4071647518E-05   0.6101036647E-01   0.6849345827E-02   0.0000000000E+00  -0.2320547227E-02
   0.2988332600E+00   0.9167585246E-02   0.9304826613E-04  -0.6918049217E-08   0.1860965323E-03  -0.1383609843E-07   0.4382409979E-01   0.1261218416E-01   0.0000000000E+00  -0.1215303971E-02
   0.2231140708E+00   0.1550559879E+00   0.6970794146E-04  -0.6396539943E-05   0.1394158829E-03  -0.1279307989E-04   0.7752432248E-01  -0.2004307947E-02   0.0000000000E+00  -0.5574017908E-02
   0.2192886775E+00   0.2796857750E-01   0.8288165423E-04  -0.1839511574E-06   0.1657633085E-03  -0.3679023147E-06   0.3323587474E-01   0.7825655277E-02   0.0000000000E+00  -0.4236653082E-02
   0.1956042958E+00   0.9437491331E-02   0.8139551187E-04  -0.8158963710E-07   0.1627910237E-03  -0.1631792742E-06   0.2836644524E-01   0.5145400941E-02   0.0000000000E+00  -0.5498469969E-02
   0.1327086371E+00   0.1177100638E-01   0.7783254327E-04  -0.8202304138E-06   0.1556650865E-03  -0.1640460828E-05   0.1013297026E-02  -0.2155757420E-01   0.0000000000E+00   0.2510511424E-05
   0.3406274623E+00   0.2404242513E+00   0.9714601106E-04  -0.9916074163E-05   0.1942920221E-03  -0.1983214833E-04   0.8855752237E-01   0.8017536283E-04   0.0000000000E+00  -0.1698791076E-05
   0.2825321687E+00   0.2407560539E+00   0.7980506211E-04  -0.1091618472E-04   0.1596101242E-03  -0.2183236944E-04   0.9177656660E-01   0.2508138099E-04   0.0000000000E+00  -0.7178026726E-03
   0.3406800478E+00   0.1635091426E+00   0.9769944518E-04  -0.4015481377E-05   0.1953988904E-03  -0.8030962754E-05   0.7277830013E-01   0.3429368288E-02   0.0000000000E+00  -0.3177356914E-05
   0.3406929368E+00   0.1441372541E+00   0.9786551387E-04  -0.2912566548E-05   0.1957310277E-03  -0.5825133097E-05   0.6813414039E-01   0.4798300810E-02   0.0000000000E+00  -0.2296350228E-05
   0.3407432237E+00   0.1247401762E+00   0.9804039385E-04  -0.1993012302E-05   0.1960807877E-03  -0.3986024603E-05   0.6339929534E-01   0.6195548574E-02   0.0000000000E+00  -0.1530578868E-02
   0.3407824070E+00   0.1053722132E+00   0.9820699827E-04  -0.1264537974E-05   0.1964139965E-03  -0.2529075948E-05   0.5899429935E-01   0.7851124771E-02   0.0000000000E+00  -0.1177656351E-05
   0.3407500499E+00   0.8607022198E-01   0.9834880545E-04  -0.7241884292E-06   0.1966976109E-03  -0.1448376858E-05   0.5457351631E-01   0.9326680132E-02   0.0000000000E+00  -0.1483879181E-02
   0.3404867135E+00   0.4764948344E-01   0.9854423947E-04  -0.1392965776E-06   0.1970884789E-03  -0.2785931551E-06   0.4822149222E-01   0.1199749417E-01   0.0000000000E+00  -0.1001767269E-05
   0.9641353191E-02   0.2415342238E+00   0.1898076965E-05  -0.4327248281E-04   0.3796153929E-05  -0.8654496562E-04   0.6026383593E-01   0.3497926608E-03   0.0000000000E+00   0.1329500312E-02
   0.4675444732E-01   0.2073510110E+00   0.1231505692E-04  -0.3780648637E-04   0.2463011385E-04  -0.7561297273E-04   0.7914422146E-01   0.1958547377E-02   0.0000000000E+00   0.8092960319E-02
   0.2755151081E-01   0.2082580160E+00   0.7145085570E-05  -0.4010826240E-04   0.1429017114E-04  -0.8021652481E-04   0.7638589354E-01   0.3070666884E-02   0.0000000000E+00   0.5370866653E-02
   0.4797684065E-01   0.2239850856E+00   0.1146999041E-04  -0.3883787122E-04   0.2293998081E-04  -0.7767574243E-04   0.7351200861E-01   0.1602193361E-02   0.0000000000E+00   0.5769777960E-02
   0.1463849936E+00   0.2412395890E+00   0.3676929013E-04  -0.2310900614E-04   0.7353858027E-04  -0.4621801228E-04   0.9524005363E-01  -0.1991701506E-03   0.0000000000E+00   0.9625663157E-03
   0.1658619247E+00   0.2412148290E+00   0.4294440413E-04  -0.2019141438E-04   0.8588880825E-04  -0.4038282875E-04   0.9650815252E-01  -0.1674679956E-03   0.0000000000E+00   0.3328260470E-03
   0.2369676491E+00   0.9199795422E-02   0.8545310168E-04  -0.2821268163E-07   0.1709062034E-03  -0.5642536326E-07   0.3706980462E-01   0.9697919682E-02   0.0000000000E+00  -0.3229871423E-02
   0.2061461518E+00   0.2071296648E+00   0.5934669799E-04  -0.1229590853E-04   0.1186933960E-03  -0.2459181706E-04   0.8883097382E-01  -0.1692307245E-02   0.0000000000E+00  -0.1142159622E-02
   0.1279991354E+00   0.2239580927E+00   0.3363106055E-04  -0.2460567442E-04   0.6726212110E-04  -0.4921134883E-04   0.8956941309E-01  -0.2112270656E-02   0.0000000000E+00   0.5598790830E-02
   0.2048365953E+00   0.2411288342E+00   0.5548068790E-04  -0.1562084143E-04   0.1109613758E-03  -0.3124168287E-04   0.9594472150E-01  -0.8040278349E-04   0.0000000000E+00  -0.4943480850E-03
   0.2437391127E+00   0.2409064938E+00   0.6784498499E-04  -0.1263940917E-04   0.1356899700E-03  -0.2527881835E-04   0.9470181602E-01  -0.4045381270E-04   0.0000000000E+00  -0.6907053672E-03
   0.2631507793E+00   0.2408374660E+00   0.7387693272E-04  -0.1164650538E-04   0.1477538654E-03  -0.2329301076E-04   0.9324666725E-01  -0.4369381252E-05   0.0000000000E+00  -0.7547832383E-03
   0.3212636875E+00   0.2405495085E+00   0.9141676028E-04  -0.1007925967E-04   0.1828335206E-03  -0.2015851935E-04   0.8879445942E-01   0.7472670877E-04   0.0000000000E+00  -0.2279044071E-03
   0.5716008737E-01   0.9429926358E-01   0.3691437169E-04  -0.2639450677E-04   0.7382874339E-04  -0.5278901353E-04   0.1237902023E+00   0.3662095865E-01   0.0000000000E+00  -0.6037302720E-01
   0.9092021119E-02   0.2083404393E+00   0.2343626459E-05  -0.4124155631E-04   0.4687252917E-05  -0.8248311262E-04   0.7901621507E-01   0.5751591450E-02   0.0000000000E+00   0.4496392379E-04
   0.8732119273E-02   0.1918476664E+00   0.2445561071E-05  -0.4029796248E-04   0.4891122142E-05  -0.8059592497E-04   0.8707429218E-01   0.9958620628E-02   0.0000000000E+00   0.4672625560E-04
   0.2848334856E-01   0.1060367040E+00   0.1797332693E-04  -0.3332150736E-04   0.3594665385E-04  -0.6664301472E-04   0.1839690271E+00   0.1543198076E-01   0.0000000000E+00  -0.2173904108E-01
   0.8451725535E-02   0.1753637860E+00   0.2564614915E-05  -0.3946108839E-04   0.5129229830E-05  -0.7892217679E-04   0.9563682527E-01   0.1467022048E-01   0.0000000000E+00   0.6770605367E-04
   0.2555403866E-01   0.1434029263E+00   0.9594819089E-05  -0.3658239902E-04   0.1918963818E-04  -0.7316479805E-04   0.1102601842E+00   0.1740631079E-01   0.0000000000E+00   0.6166754873E-02
   0.2642369970E-01   0.1921136243E+00   0.7422173419E-05  -0.3919448971E-04   0.1484434684E-04  -0.7838897942E-04   0.8391043608E-01   0.6213448361E-02   0.0000000000E+00   0.6413299683E-02
   0.2576065890E+00   0.9158432324E-02   0.8783507452E-04  -0.1744520781E-07   0.1756701490E-03  -0.3489041563E-07   0.3894384898E-01   0.1123029696E-01   0.0000000000E+00  -0.2402654624E-04
   0.2473290192E+00   0.8327377785E-01   0.8245690235E-04  -0.1213816313E-05   0.1649138047E-03  -0.2427632625E-05   0.5259425551E-01   0.4059930735E-02   0.0000000000E+00  -0.9433302824E-02
   0.3000687510E+00   0.2764351924E-01   0.9301541913E-04  -0.4554612632E-07   0.1860308383E-03  -0.9109225265E-07   0.4514424545E-01   0.1248446449E-01   0.0000000000E+00  -0.1377802286E-02
   0.3406444112E+00   0.6683261669E-01   0.9846173560E-04  -0.3573876822E-06   0.1969234712E-03  -0.7147753644E-06   0.5117097155E-01   0.1080744432E-01   0.0000000000E+00  -0.9985264967E-06
   0.3208481310E+00   0.4690605255E-01   0.9565099281E-04  -0.1429678646E-06   0.1913019856E-03  -0.2859357292E-06   0.4905922474E-01   0.1131193567E-01   0.0000000000E+00  -0.1818132947E-02
   0.3194500082E+00   0.9280185153E-02   0.9580014588E-04  -0.4682341004E-08   0.1916002918E-03  -0.9364682008E-08   0.4428974163E-01   0.1322866046E-01   0.0000000000E+00  -0.6706279065E-05
   0.3407300922E+00   0.2021120262E+00   0.9741081596E-04  -0.6713111676E-05   0.1948216319E-03  -0.1342622335E-04   0.8152361219E-01   0.1239354265E-02   0.0000000000E+00  -0.3503513424E-05
   0.3407160741E+00   0.2213090354E+00   0.9727828721E-04  -0.8265382950E-05   0.1945565744E-03  -0.1653076590E-04   0.8556699645E-01   0.4703101478E-03   0.0000000000E+00  -0.5869022246E-03
   0.3406979279E+00   0.1828342945E+00   0.9754738484E-04  -0.5288176950E-05   0.1950947697E-03  -0.1057635390E-04   0.7746078579E-01   0.2140747053E-02   0.0000000000E+00  -0.1092736248E-02
   0.2832052740E+00   0.2033636816E+00   0.8166442286E-04  -0.7664624642E-05   0.1633288457E-03  -0.1532924928E-04   0.8285746505E-01   0.8019348600E-03   0.0000000000E+00  -0.2331191049E-02
   0.2026137410E+00   0.4769785327E-01   0.7936848643E-04  -0.6690012178E-06   0.1587369729E-03  -0.1338002436E-05   0.4167375280E-01   0.2237735877E-02   0.0000000000E+00  -0.1205428880E-01
   0.6794932622E-01   0.1192558539E+00   0.3044818852E-04  -0.2571818722E-04   0.6089637704E-04  -0.5143637443E-04   0.1048122422E+00  -0.5620113646E-02   0.0000000000E+00  -0.1126847322E-02
   0.6812157676E-01   0.2409376613E+00   0.1463172689E-04  -0.3698732186E-04   0.2926345378E-04  -0.7397464371E-04   0.7659409359E-01   0.1088608221E-03   0.0000000000E+00   0.6078004900E-02
   0.4814029970E-01   0.1095902691E+00   0.2587406557E-04  -0.2984659552E-04   0.5174813114E-04  -0.5969319105E-04   0.1281156324E+00   0.1132982885E-01   0.0000000000E+00  -0.4538181558E-02
   0.6737336588E-01   0.2049944454E+00   0.1822095323E-04  -0.3429954924E-04   0.3644190646E-04  -0.6859909848E-04   0.8710518164E-01  -0.5258194437E-03   0.0000000000E+00   0.1084203869E-01
   0.4850458236E-01   0.2411957111E+00   0.1001287797E-04  -0.3996048026E-04   0.2002575594E-04  -0.7992096053E-04   0.6225000088E-01  -0.1216287995E-03   0.0000000000E+00   0.1549246992E-03
   0.3218654338E+00   0.1045715651E+00   0.9466027810E-04  -0.1285913533E-05   0.1893205562E-03  -0.2571827067E-05   0.5650446277E-01   0.8450823550E-02   0.0000000000E+00  -0.2296166404E-02
   0.1862390112E+00   0.2240361793E+00   0.5146855183E-04  -0.1594540943E-04   0.1029371037E-03  -0.3189081886E-04   0.9432303576E-01  -0.3511399906E-03   0.0000000000E+00   0.1251313482E-03
   0.3215069342E+00   0.1439024868E+00   0.9360223662E-04  -0.2987974612E-05   0.1872044732E-03  -0.5975949223E-05   0.6579775022E-01   0.5273020601E-02   0.0000000000E+00  -0.2233505061E-02
   0.3214176856E+00   0.1635699964E+00   0.9308393589E-04  -0.4125716603E-05   0.1861678718E-03  -0.8251433207E-05   0.7289296254E-01   0.3319856303E-02   0.0000000000E+00  -0.1286060471E-02
   0.2243022671E+00   0.2410174724E+00   0.6170753186E-04  -0.1394871305E-04   0.1234150637E-03  -0.2789742611E-04   0.9470181602E-01  -0.4045381270E-04   0.0000000000E+00  -0.6907053672E-03
   0.2782181721E+00   0.9138888629E-02   0.9038036978E-04  -0.1089366258E-07   0.1807607396E-03  -0.2178732517E-07   0.4141483394E-01   0.1217234759E-01   0.0000000000E+00  -0.1563922478E-04
   0.2830793787E+00   0.2222179089E+00   0.8072956318E-04  -0.9251533773E-05   0.1614591264E-03  -0.1850306755E-04   0.8790800461E-01   0.1748594446E-03   0.0000000000E+00  -0.1862197987E-02
   0.2844381111E-01   0.2246917776E+00   0.6658679020E-05  -0.4110747107E-04   0.1331735804E-04  -0.8221494215E-04   0.6751890454E-01   0.7538901740E-03   0.0000000000E+00   0.3443787013E-02
   0.1269110883E+00   0.2411876312E+00   0.3077859565E-04  -0.2638642000E-04   0.6155719131E-04  -0.5277284000E-04   0.9258774399E-01  -0.2113335843E-03   0.0000000000E+00   0.1687998563E-02
   0.7081979438E-01   0.8203686679E-01   0.4813763421E-04  -0.2172682809E-04   0.9627526841E-04  -0.4345365619E-04   0.5786931499E-01   0.3621516959E-01   0.0000000000E+00  -0.4435758367E-01
   0.2251220586E+00   0.2233848806E+00   0.6344736010E-04  -0.1223595424E-04   0.1268947202E-03  -0.2447190848E-04   0.9302321119E-01  -0.1345054885E-03   0.0000000000E+00  -0.1127069050E-02
   0.1853485511E+00   0.2411757153E+00   0.4920727678E-04  -0.1769238666E-04   0.9841455357E-04  -0.3538477332E-04   0.9664574680E-01  -0.1246058558E-03   0.0000000000E+00  -0.1581727683E-03
   0.1685140717E+00   0.1920047677E+00   0.5000788913E-04  -0.1502002473E-04   0.1000157783E-03  -0.3004004947E-04   0.8729322080E-01  -0.3790956436E-02   0.0000000000E+00  -0.4668787151E-03
   0.2638550731E+00   0.2225579420E+00   0.7508554793E-04  -0.9964261805E-05   0.1501710959E-03  -0.1992852361E-04   0.8790800461E-01   0.1748594446E-03   0.0000000000E+00  -0.1862197987E-02
   0.3215586956E+00   0.2024914314E+00   0.9220710849E-04  -0.6874799562E-05   0.1844142170E-03  -0.1374959912E-04   0.8394905454E-01   0.7017742812E-03   0.0000000000E+00  -0.1078650686E-02
   0.3023505033E+00   0.2028525983E+00   0.8695727055E-04  -0.7180233627E-05   0.1739145411E-03  -0.1436046725E-04   0.8217503421E-01   0.1035617146E-02   0.0000000000E+00  -0.1660535424E-02
   0.1073713471E+00   0.2410333049E+00   0.2505182605E-04  -0.2992003662E-04   0.5010365210E-04  -0.5984007323E-04   0.8300699721E-01  -0.1398695559E-03   0.0000000000E+00   0.3098848069E-02
   0.5738938162E-01   0.1477664198E+00   0.2061026591E-04  -0.3122632440E-04   0.4122053182E-04  -0.6245264879E-04   0.1046690967E+00   0.5236314703E-02   0.0000000000E+00   0.9904084375E-02
   0.4441220512E-01   0.1283410961E+00   0.1906454133E-04  -0.3232528697E-04   0.3812908265E-04  -0.6465057393E-04   0.1174261020E+00   0.1182319780E-01   0.0000000000E+00   0.5140540053E-02
   0.8382751600E-01   0.6747166006E-01   0.5866025876E-04  -0.1659852953E-04   0.1173205175E-03  -0.3319705905E-04   0.4548653467E-01  -0.9099848617E-02   0.0000000000E+00  -0.1914242542E-01
   0.1390482851E+00   0.3312146395E-01   0.7529294781E-04  -0.1872090185E-05   0.1505858956E-03  -0.3744180370E-05   0.7490062222E-02  -0.1764688127E-01   0.0000000000E+00  -0.1001444194E-01
   0.1055122478E+00   0.3254848335E-01   0.7360093942E-04  -0.6154684910E-05   0.1472018788E-03  -0.1230936982E-04   0.6993022277E-02  -0.2943222157E-01   0.0000000000E+00  -0.1024147955E-01
   0.1543026755E+00   0.1011913485E-01   0.7869815880E-04  -0.3146811784E-06   0.1573963176E-03  -0.6293623568E-06   0.1007251484E-01  -0.6508128445E-02   0.0000000000E+00  -0.2905021994E-03
   0.2698366497E-01   0.1256781512E+00   0.1228200759E-04  -0.3529743898E-04   0.2456401518E-04  -0.7059487797E-04   0.1496571648E+00   0.1900474488E-01   0.0000000000E+00  -0.7743870820E-02
   0.2162909622E+00   0.9298638471E-02   0.8328522076E-04  -0.4686633609E-07   0.1665704415E-03  -0.9373267218E-07   0.3323587474E-01   0.7825655277E-02   0.0000000000E+00  -0.4236653082E-02
   0.2849490981E+00   0.1026051355E+00   0.8781153062E-04  -0.1465360727E-05   0.1756230612E-03  -0.2930721455E-05   0.5806266355E-01   0.5832976854E-02   0.0000000000E+00  -0.6096523712E-02
   0.3029013413E+00   0.8436650902E-01   0.9187251177E-04  -0.7794530975E-06   0.1837450235E-03  -0.1558906195E-05   0.5618279018E-01   0.7955839343E-02   0.0000000000E+00  -0.3820754471E-02
   0.3202102832E+00   0.2798258533E-01   0.9578624410E-04  -0.3795727567E-07   0.1915724882E-03  -0.7591455133E-07   0.4647472864E-01   0.1235710916E-01   0.0000000000E+00  -0.1336134646E-02
   0.3032165529E+00   0.1036648335E+00   0.9118721989E-04  -0.1352335162E-05   0.1823744398E-03  -0.2704670323E-05   0.5618279018E-01   0.7955839343E-02   0.0000000000E+00  -0.3820754471E-02
   0.1676789187E+00   0.2078143384E+00   0.4776458042E-04  -0.1671810017E-04   0.9552916085E-04  -0.3343620034E-04   0.9008100231E-01  -0.2830795751E-02   0.0000000000E+00   0.2361288360E-02
   0.1749824249E+00   0.9627463890E-02   0.7985520103E-04  -0.1519133671E-06   0.1597104021E-03  -0.3038267342E-06   0.1849267694E-01   0.8869895490E-03   0.0000000000E+00  -0.1151148626E-03
   0.1789077751E+00   0.2894262210E-01   0.7883970219E-04  -0.4928743535E-06   0.1576794044E-03  -0.9857487069E-06   0.3022512328E-01   0.1514959945E-03   0.0000000000E+00  -0.1209136224E-01
   0.3029505105E+00   0.1233254331E+00   0.9032650230E-04  -0.2135982782E-05   0.1806530046E-03  -0.4271965564E-05   0.6085124910E-01   0.6351656258E-02   0.0000000000E+00  -0.3834197371E-02
   0.4458913348E-01   0.1914794312E+00   0.1266148648E-04  -0.3697168171E-04   0.2532297296E-04  -0.7394336341E-04   0.8568232071E-01   0.3999268617E-02   0.0000000000E+00   0.9605558650E-02
   0.4259878245E-01   0.1761031083E+00   0.1298926536E-04  -0.3618489429E-04   0.2597853072E-04  -0.7236978859E-04   0.9901002950E-01   0.9074614787E-02   0.0000000000E+00   0.1002315128E-01
   0.4154952550E-01   0.1608929385E+00   0.1373740861E-04  -0.3530058953E-04   0.2747481722E-04  -0.7060117905E-04   0.1072898788E+00   0.1137248857E-01   0.0000000000E+00   0.9008228717E-02
   0.3021700576E+00   0.6528462356E-01   0.9240621225E-04  -0.3912206048E-06   0.1848124245E-03  -0.7824412095E-06   0.4836380813E-01   0.1086129714E-01   0.0000000000E+00  -0.3064291173E-02
   0.3022522210E+00   0.1433822941E+00   0.8932350847E-04  -0.3144452236E-05   0.1786470169E-03  -0.6288904472E-05   0.7090888452E-01   0.3345877868E-02   0.0000000000E+00  -0.3344509316E-02
   0.2597953288E+00   0.2753492997E-01   0.8770776241E-04  -0.8323588060E-07   0.1754155248E-03  -0.1664717612E-06   0.4002400792E-01   0.1102339344E-01   0.0000000000E+00  -0.2432458709E-02
   0.2422238337E+00   0.4622155054E-01   0.8456423484E-04  -0.3213118897E-06   0.1691284697E-03  -0.6426237793E-06   0.4474366278E-01   0.7421747352E-02   0.0000000000E+00  -0.7598361363E-02
   0.2799279910E+00   0.2750618483E-01   0.9031316761E-04  -0.5974742026E-07   0.1806263352E-03  -0.1194948405E-06   0.4394147854E-01   0.1194904034E-01   0.0000000000E+00  -0.2123218311E-02
   0.3214736718E+00   0.1831055292E+00   0.9262261169E-04  -0.5428432604E-05   0.1852452234E-03  -0.1085686521E-04   0.7536668102E-01   0.2563817780E-02   0.0000000000E+00  -0.1770410406E-02
   0.2445250686E+00   0.2229189337E+00   0.6932562232E-04  -0.1093901593E-04   0.1386512446E-03  -0.2187803185E-04   0.8765171700E-01  -0.1648836659E-03   0.0000000000E+00  -0.2419332216E-02
   0.2447932136E+00   0.2051616926E+00   0.7075428180E-04  -0.9357225862E-05   0.1415085636E-03  -0.1871445172E-04   0.8631164865E-01  -0.4949659511E-03   0.0000000000E+00  -0.2799967105E-02
   0.1667754738E+00   0.2241593696E+00   0.4544166804E-04  -0.1842939061E-04   0.9088333608E-04  -0.3685878123E-04   0.9098803861E-01  -0.1770187527E-02   0.0000000000E+00   0.1506813345E-02
   0.1719179712E+00   0.7640392459E-01   0.7054597711E-04  -0.2937603585E-05   0.1410919542E-03  -0.5875207170E-05   0.5330169308E-01  -0.9294956090E-02   0.0000000000E+00  -0.1752248712E-01
   0.2057004495E+00   0.2238238561E+00   0.5748258937E-04  -0.1389438474E-04   0.1149651787E-03  -0.2778876948E-04   0.9395673810E-01  -0.2385621664E-03   0.0000000000E+00  -0.6366817773E-03
   0.3022686967E+00   0.2219183676E+00   0.8628948654E-04  -0.8754212949E-05   0.1725789731E-03  -0.1750842590E-04   0.8608606970E-01   0.4090860006E-03   0.0000000000E+00  -0.1123763984E-02
   0.3018926403E+00   0.2406592616E+00   0.8564250770E-04  -0.1040506184E-04   0.1712850154E-03  -0.2081012368E-04   0.8944592924E-01   0.6414837059E-04   0.0000000000E+00  -0.4348885436E-03
   0.1083375361E+00   0.2234027708E+00   0.2789540542E-04  -0.2818590765E-04   0.5579081084E-04  -0.5637181529E-04   0.8618593680E-01  -0.4528081932E-03   0.0000000000E+00   0.5055331015E-02
   0.8826851686E-01   0.2227945734E+00   0.2225250210E-04  -0.3194810629E-04   0.4450500421E-04  -0.6389621258E-04   0.8557046489E-01  -0.9835981103E-03   0.0000000000E+00   0.9286845657E-02
   0.1295413162E+00   0.2072033593E+00   0.3630022590E-04  -0.2270765667E-04   0.7260045181E-04  -0.4541531333E-04   0.8989249313E-01  -0.4216623165E-02   0.0000000000E+00   0.5887782307E-02
   0.2254215990E+00   0.2061920042E+00   0.6508667995E-04  -0.1065350464E-04   0.1301733599E-03  -0.2130700929E-04   0.8766313377E-01  -0.1078558053E-02   0.0000000000E+00  -0.2195761682E-02
   0.2258232157E+00   0.6553895767E-01   0.8067731208E-04  -0.9021530087E-06   0.1613546242E-03  -0.1804306017E-05   0.4957801337E-01   0.3607819114E-02   0.0000000000E+00  -0.1041631473E-01
   0.6990974302E-01   0.1544742473E+00   0.2402593839E-04  -0.2914656568E-04   0.4805187677E-04  -0.5829313136E-04   0.1007695627E+00   0.1080807553E-02   0.0000000000E+00   0.1091844712E-01
   0.1499825903E+00   0.1914969913E+00   0.4452335346E-04  -0.1764283086E-04   0.8904670692E-04  -0.3528566172E-04   0.8965351254E-01  -0.5302259204E-02   0.0000000000E+00   0.4110739306E-02
   0.2828027274E+00   0.1839452500E+00   0.8258371973E-04  -0.6159168295E-05   0.1651674395E-03  -0.1231833659E-04   0.7936839599E-01   0.9120374831E-03   0.0000000000E+00  -0.3681761782E-02
   0.8297816152E-01   0.1639331044E+00   0.2715006505E-04  -0.2730670619E-04   0.5430013010E-04  -0.5461341238E-04   0.9858311516E-01  -0.5954845993E-02   0.0000000000E+00   0.8503066784E-02
   0.2395856698E+00   0.2766511798E-01   0.8522050534E-04  -0.1209910194E-06   0.1704410107E-03  -0.2419820387E-06   0.3992350231E-01   0.9966653633E-02   0.0000000000E+00  -0.3970168947E-02
   0.2842724044E+00   0.8365413908E-01   0.8872204224E-04  -0.8630748037E-06   0.1774440845E-03  -0.1726149607E-05   0.5375746458E-01   0.8345820374E-02   0.0000000000E+00  -0.4468780235E-02
   0.2326907269E+00   0.1024538197E+00   0.7788029962E-04  -0.2352597585E-05   0.1557605992E-03  -0.4705195169E-05   0.6175214980E-01   0.1045811735E-02   0.0000000000E+00  -0.9278152669E-02
   0.2815530369E+00   0.4605884427E-01   0.8998787905E-04  -0.1892280208E-06   0.1799757581E-03  -0.3784560417E-06   0.4739768177E-01   0.1011067248E-01   0.0000000000E+00  -0.4397466436E-02
   0.3011934498E+00   0.4636532984E-01   0.9279319579E-04  -0.1586710449E-06   0.1855863916E-03  -0.3173420899E-06   0.4836380813E-01   0.1086129714E-01   0.0000000000E+00  -0.3064291173E-02
   0.2830387230E+00   0.6479366752E-01   0.8944508271E-04  -0.4455669599E-06   0.1788901654E-03  -0.8911339197E-06   0.4969436747E-01   0.9810994152E-02   0.0000000000E+00  -0.4031144241E-02
   0.1480962385E+00   0.4990925134E-01   0.7269084562E-04  -0.2383386800E-05   0.1453816912E-03  -0.4766773600E-05   0.2886078418E-01  -0.8125841533E-02   0.0000000000E+00  -0.1680148416E-01
   0.1591627125E+00   0.2971690790E-01   0.7719349596E-04  -0.8855595990E-06   0.1543869919E-03  -0.1771119198E-05   0.1697904034E-01  -0.9322491684E-02   0.0000000000E+00  -0.1276178446E-01
   0.3215031613E+00   0.2216327930E+00   0.9180569076E-04  -0.8434266564E-05   0.1836113815E-03  -0.1686853313E-04   0.8754001274E-01   0.1581313328E-03   0.0000000000E+00  -0.6260564824E-03
   0.6177707292E-01   0.1338655269E+00   0.2454004014E-04  -0.2886620605E-04   0.4908008028E-04  -0.5773241210E-04   0.1096566449E+00   0.3392229345E-02   0.0000000000E+00   0.7210470792E-02
   0.1344127064E+00   0.1571787920E+00   0.4471537560E-04  -0.1622024754E-04   0.8943075119E-04  -0.3244049507E-04   0.9136945451E-01  -0.1064164421E-01   0.0000000000E+00   0.2445565639E-02
   0.5976948016E-01   0.1747973905E+00   0.1846333533E-04  -0.3313733757E-04   0.3692667065E-04  -0.6627467514E-04   0.9601584239E-01   0.7507429356E-03   0.0000000000E+00   0.1179812822E-01
   0.5791230662E-01   0.1609111910E+00   0.1918888245E-04  -0.3229840852E-04   0.3837776490E-04  -0.6459681704E-04   0.1046690967E+00   0.5236314703E-02   0.0000000000E+00   0.9904084375E-02
   0.9919971277E-01   0.1707358079E+00   0.3153473288E-04  -0.2463094714E-04   0.6306946576E-04  -0.4926189429E-04   0.9507177261E-01  -0.7795565066E-02   0.0000000000E+00   0.7429907918E-02
   0.2249581251E+00   0.1892100793E+00   0.6658460846E-04  -0.9181829417E-05   0.1331692169E-03  -0.1836365883E-04   0.8511466644E-01  -0.1024017819E-02   0.0000000000E+00  -0.3021917069E-02
   0.3021438924E+00   0.1833696930E+00   0.8763812014E-04  -0.5703076702E-05   0.1752762403E-03  -0.1140615340E-04   0.7579665473E-01   0.2182043683E-02   0.0000000000E+00  -0.2855195912E-02
   0.2847259118E+00   0.1218627066E+00   0.8665518099E-04  -0.2279639938E-05   0.1733103620E-03  -0.4559279877E-05   0.6065664372E-01   0.5576054002E-02   0.0000000000E+00  -0.5308336715E-02
   0.2827990753E+00   0.1421986836E+00   0.8502194440E-04  -0.3378137315E-05   0.1700438888E-03  -0.6756274631E-05   0.6861743803E-01   0.2767360721E-02   0.0000000000E+00  -0.5454379991E-02
   0.2619316645E+00   0.4602335583E-01   0.8724599702E-04  -0.2402639004E-06   0.1744919940E-03  -0.4805278008E-06   0.4253358937E-01   0.1022899703E-01   0.0000000000E+00  -0.4441440476E-02
   0.2442878658E+00   0.1874856022E+00   0.7206667727E-04  -0.7888781671E-05   0.1441333545E-03  -0.1577756334E-04   0.7958846316E-01  -0.3344020572E-03   0.0000000000E+00  -0.4473016960E-02
   0.6802391145E-01   0.2230281898E+00   0.1671903255E-04  -0.3564241368E-04   0.3343806510E-04  -0.7128482737E-04   0.7746571280E-01   0.7693447798E-03   0.0000000000E+00   0.7588222177E-02
   0.3019187298E+00   0.1635097295E+00   0.8839119063E-04  -0.4348751530E-05   0.1767823813E-03  -0.8697503061E-05   0.7360613758E-01   0.2455357600E-02   0.0000000000E+00  -0.3664256842E-02
   0.1869024007E+00   0.2076693283E+00   0.5356373607E-04  -0.1430656692E-04   0.1071274721E-03  -0.2861313385E-04   0.8883097382E-01  -0.1692307245E-02   0.0000000000E+00  -0.1142159622E-02
   0.1826530274E+00   0.4902100980E-01   0.7680128473E-04  -0.1043241516E-05   0.1536025695E-03  -0.2086483031E-05   0.3022512328E-01   0.1514959945E-03   0.0000000000E+00  -0.1209136224E-01
   0.1486029696E+00   0.2076773757E+00   0.4200878990E-04  -0.1952659884E-04   0.8401757980E-04  -0.3905319769E-04   0.9008100231E-01  -0.2830795751E-02   0.0000000000E+00   0.2361288360E-02
   0.1092598730E+00   0.6019325633E-01   0.6500371419E-04  -0.8239463803E-05   0.1300074284E-03  -0.1647892761E-04   0.2474972036E-01  -0.2219447587E-01   0.0000000000E+00  -0.1632297030E-01
   0.2640736323E+00   0.2041772072E+00   0.7628386155E-04  -0.8375946393E-05   0.1525677231E-03  -0.1675189279E-04   0.8380030987E-01   0.4656910850E-03   0.0000000000E+00  -0.2793761448E-02
   0.1474566664E+00   0.7128660039E-01   0.6749037761E-04  -0.4107935604E-05   0.1349807552E-03  -0.8215871208E-05   0.4221695519E-01  -0.1454595160E-01   0.0000000000E+00  -0.2033567820E-01
   0.1099890313E+00   0.2061870117E+00   0.3054900617E-04  -0.2625017984E-04   0.6109801233E-04  -0.5250035968E-04   0.8990221618E-01  -0.3794779449E-02   0.0000000000E+00   0.8462229880E-02
   0.7549329525E-01   0.1790449247E+00   0.2301560928E-04  -0.3043558796E-04   0.4603121857E-04  -0.6087117592E-04   0.9615967789E-01  -0.2088319327E-02   0.0000000000E+00   0.1116179494E-01
   0.8907512749E-01   0.2044172932E+00   0.2455207169E-04  -0.3015718623E-04   0.4910414338E-04  -0.6031437246E-04   0.8557046489E-01  -0.9835981103E-03   0.0000000000E+00   0.9286845657E-02
   0.1220125604E+00   0.4404623819E-01   0.7158804979E-04  -0.4352826706E-05   0.1431760996E-03  -0.8705653412E-05   0.1376025573E-01  -0.2004301959E-01   0.0000000000E+00  -0.1394024725E-01
   0.2224436617E+00   0.4674743671E-01   0.8194364661E-04  -0.4517044601E-06   0.1638872932E-03  -0.9034089201E-06   0.4318385620E-01   0.5240997446E-02   0.0000000000E+00  -0.9628765002E-02
   0.2670415434E+00   0.1016597983E+00   0.8451023304E-04  -0.1641943945E-05   0.1690204661E-03  -0.3283887890E-05   0.6054236967E-01   0.4481536881E-02   0.0000000000E+00  -0.6733004580E-02
   0.2657428803E+00   0.8319945326E-01   0.8559635588E-04  -0.9994045909E-06   0.1711927118E-03  -0.1998809182E-05   0.5063454340E-01   0.7514947030E-02   0.0000000000E+00  -0.6693474620E-02
   0.2448291465E+00   0.6479339736E-01   0.8360240679E-04  -0.6784295638E-06   0.1672048136E-03  -0.1356859128E-05   0.4474366278E-01   0.7421747352E-02   0.0000000000E+00  -0.7598361363E-02
   0.1315195680E+00   0.1908148287E+00   0.3900456860E-04  -0.2065094133E-04   0.7800913721E-04  -0.4130188266E-04   0.9053397556E-01  -0.5241915504E-02   0.0000000000E+00   0.6790069580E-02
   0.2639397218E+00   0.6459861997E-01   0.8651792970E-04  -0.5358109647E-06   0.1730358594E-03  -0.1071621929E-05   0.4618432972E-01   0.8997407183E-02   0.0000000000E+00  -0.5881973276E-02
   0.1693444614E+00   0.1765354112E+00   0.5228780011E-04  -0.1330217445E-04   0.1045756002E-03  -0.2660434890E-04   0.8498469322E-01  -0.5242916338E-02   0.0000000000E+00  -0.1866277337E-02
   0.7724482384E-01   0.1417443029E+00   0.2858913054E-04  -0.2605629818E-04   0.5717826107E-04  -0.5211259637E-04   0.1032021007E+00  -0.2466897058E-02   0.0000000000E+00   0.8188970267E-02
   0.9752814191E-01   0.7628077511E-01   0.5650743618E-04  -0.1277754591E-04   0.1130148724E-03  -0.2555509183E-04   0.6145936079E-01  -0.1773668276E-01   0.0000000000E+00  -0.1951214587E-01
   0.6309985458E-01   0.1889732538E+00   0.1830170293E-04  -0.3372440886E-04   0.3660340586E-04  -0.6744881773E-04   0.9303207884E-01   0.2998864666E-02   0.0000000000E+00   0.1165387446E-01
   0.2635753721E+00   0.1854646315E+00   0.7741562347E-04  -0.6879423274E-05   0.1548312469E-03  -0.1375884655E-04   0.7785870650E-01   0.7107084780E-03   0.0000000000E+00  -0.4327656593E-02
   0.8469952475E-01   0.1287701485E+00   0.3393867562E-04  -0.2264043217E-04   0.6787735123E-04  -0.4528086434E-04   0.1048122422E+00  -0.5620113646E-02   0.0000000000E+00  -0.1126847322E-02
   0.2618982721E+00   0.1660775130E+00   0.7840752578E-04  -0.5477483990E-05   0.1568150516E-03  -0.1095496798E-04   0.7667915357E-01   0.3174594504E-03   0.0000000000E+00  -0.5007382098E-02
   0.2818583999E+00   0.1634148496E+00   0.8352372826E-04  -0.4723883737E-05   0.1670474565E-03  -0.9447767475E-05   0.7130861715E-01   0.2541563479E-02   0.0000000000E+00  -0.4595262239E-02
   0.2675207331E+00   0.1199178772E+00   0.8324294337E-04  -0.2466015339E-05   0.1664858867E-03  -0.4932030678E-05   0.6054236967E-01   0.4481536881E-02   0.0000000000E+00  -0.6733004580E-02
   0.1871607087E+00   0.1919766333E+00   0.5550099862E-04  -0.1276032854E-04   0.1110019972E-03  -0.2552065707E-04   0.8584383653E-01  -0.2773818582E-02   0.0000000000E+00  -0.2090668737E-02
   0.2565073601E+00   0.1496188849E+00   0.7841501871E-04  -0.4506713700E-05   0.1568300374E-03  -0.9013427400E-05   0.7002725882E-01   0.1162738568E-02   0.0000000000E+00  -0.6461994143E-02
   0.2059298829E+00   0.1908761555E+00   0.6104387674E-04  -0.1080850412E-04   0.1220877535E-03  -0.2161700824E-04   0.8584383653E-01  -0.2773818582E-02   0.0000000000E+00  -0.2090668737E-02
   0.1128083979E+00   0.1895697957E+00   0.3342355479E-04  -0.2400002519E-04   0.6684710959E-04  -0.4800005038E-04   0.9132831752E-01  -0.4303869452E-02   0.0000000000E+00   0.9410381875E-02
   0.1862014073E+00   0.1634511094E+00   0.5887793760E-04  -0.1003319591E-04   0.1177558752E-03  -0.2006639182E-04   0.8022137432E-01  -0.6108218109E-02   0.0000000000E+00  -0.5030687549E-02
   0.2045855953E+00   0.1747737495E+00   0.6251367277E-04  -0.9433504649E-05   0.1250273455E-03  -0.1886700930E-04   0.8311698187E-01  -0.3843456526E-02   0.0000000000E+00  -0.3303632090E-02
   0.2401191373E+00   0.1536286032E+00   0.7409475136E-04  -0.5420112288E-05   0.1481895027E-03  -0.1084022458E-04   0.7556785956E-01  -0.3173895054E-03   0.0000000000E+00  -0.5622326394E-02
   0.9099787505E-01   0.1504866875E+00   0.3179918315E-04  -0.2396284912E-04   0.6359836629E-04  -0.4792569823E-04   0.9857865846E-01  -0.9617951893E-02   0.0000000000E+00   0.4445884111E-02
   0.1514922393E+00   0.1752313268E+00   0.4718367067E-04  -0.1563613389E-04   0.9436734135E-04  -0.3127226777E-04   0.8900582621E-01  -0.7741232960E-02   0.0000000000E+00   0.2330444708E-02
   0.1637821979E+00   0.4813387739E-01   0.7477647041E-04  -0.1535971664E-05   0.1495529408E-03  -0.3071943328E-05   0.3741647537E-01  -0.6244288442E-02   0.0000000000E+00  -0.1721733549E-01
   0.1350568259E+00   0.5881041793E-01   0.6890514127E-04  -0.4123772494E-05   0.1378102825E-03  -0.8247544988E-05   0.4221695519E-01  -0.1454595160E-01   0.0000000000E+00  -0.2033567820E-01
   0.1883850886E+00   0.6978235015E-01   0.7442803793E-04  -0.1853367431E-05   0.1488560759E-03  -0.3706734862E-05   0.5128555890E-01  -0.2950370037E-02   0.0000000000E+00  -0.1448511909E-01
   0.2069970304E+00   0.6707144831E-01   0.7767270983E-04  -0.1259695518E-05   0.1553454197E-03  -0.2519391036E-05   0.4976470183E-01   0.6683886504E-03   0.0000000000E+00  -0.1250182502E-01
   0.2293680414E+00   0.8417507336E-01   0.7928646308E-04  -0.1542645019E-05   0.1585729262E-03  -0.3085290038E-05   0.4957801337E-01   0.3607819114E-02   0.0000000000E+00  -0.1041631473E-01
   0.2168533874E+00   0.1045040442E+00   0.7449713135E-04  -0.2959502055E-05   0.1489942627E-03  -0.5919004110E-05   0.5710299541E-01  -0.4614328675E-03   0.0000000000E+00  -0.1164153546E-01
   0.8642465380E-01   0.9164017760E-01   0.4702786708E-04  -0.1746865694E-04   0.9405573417E-04  -0.3493731387E-04   0.9134830360E-01  -0.6905211069E-02   0.0000000000E+00  -0.1644917482E-01
   0.1594468878E+00   0.6189448352E-01   0.7154933601E-04  -0.2549761279E-05   0.1430986720E-03  -0.5099522557E-05   0.3741647537E-01  -0.6244288442E-02   0.0000000000E+00  -0.1721733549E-01
   0.1231423406E+00   0.7126095435E-01   0.6325338038E-04  -0.6872506811E-05   0.1265067608E-03  -0.1374501362E-04   0.5619397885E-01  -0.1867981346E-01   0.0000000000E+00  -0.2016038918E-01
   0.7626859305E-01   0.1055353829E+00   0.3807440774E-04  -0.2188647308E-04   0.7614881548E-04  -0.4377294616E-04   0.9832459377E-01  -0.9551992717E-02   0.0000000000E+00  -0.8172604576E-02
   0.9407919616E-01   0.1159738626E+00   0.4055658730E-04  -0.1863113105E-04   0.8111317459E-04  -0.3726226209E-04   0.9832459377E-01  -0.9551992717E-02   0.0000000000E+00  -0.8172604576E-02
   0.2234450515E+00   0.1720514725E+00   0.6793241127E-04  -0.7798763758E-05   0.1358648225E-03  -0.1559752752E-04   0.7752432248E-01  -0.2004307947E-02   0.0000000000E+00  -0.5574017908E-02
   0.2511463908E+00   0.1191135228E+00   0.7991594233E-04  -0.2781821711E-05   0.1598318847E-03  -0.5563643422E-05   0.6082527289E-01   0.2981494945E-02   0.0000000000E+00  -0.8080469801E-02
   0.2083917540E+00   0.1516381732E+00   0.6636533856E-04  -0.7045511294E-05   0.1327306771E-03  -0.1409102259E-04   0.7412687963E-01  -0.3347450513E-02   0.0000000000E+00  -0.7293199553E-02
   0.9298033976E-01   0.1865369557E+00   0.2766202053E-04  -0.2763443713E-04   0.5532404105E-04  -0.5526887426E-04   0.9244848789E-01  -0.1916138002E-02   0.0000000000E+00   0.1131654028E-01
   0.1868319464E+00   0.1770337215E+00   0.5726246770E-04  -0.1132525336E-04   0.1145249354E-03  -0.2265050672E-04   0.8311698187E-01  -0.3843456526E-02   0.0000000000E+00  -0.3303632090E-02
   0.2426907261E+00   0.1701074481E+00   0.7317910309E-04  -0.6564712554E-05   0.1463582062E-03  -0.1312942511E-04   0.7857916335E-01  -0.9905733190E-03   0.0000000000E+00  -0.5014039145E-02
   0.1335319335E+00   0.1744265874E+00   0.4183557696E-04  -0.1845703802E-04   0.8367115393E-04  -0.3691407604E-04   0.9121688089E-01  -0.7831560355E-02   0.0000000000E+00   0.5152367954E-02
   0.1960862853E+00   0.8950063587E-01   0.7260284880E-04  -0.2772235441E-05   0.1452056976E-03  -0.5544470882E-05   0.5128555890E-01  -0.2950370037E-02   0.0000000000E+00  -0.1448511909E-01
   0.1502318776E+00   0.1212592816E+00   0.5610120483E-04  -0.9339968419E-05   0.1122024097E-03  -0.1867993684E-04   0.8029215385E-01  -0.1348609520E-01   0.0000000000E+00  -0.8198701274E-02
   0.1161071886E+00   0.1737838376E+00   0.3649803782E-04  -0.2158720198E-04   0.7299607564E-04  -0.4317440396E-04   0.9121688089E-01  -0.7831560355E-02   0.0000000000E+00   0.5152367954E-02
   0.1533109009E+00   0.1583161052E+00   0.5023389970E-04  -0.1342601622E-04   0.1004677994E-03  -0.2685203245E-04   0.8732334402E-01  -0.1033327760E-01   0.0000000000E+00  -0.8281892714E-03
   0.1176890448E+00   0.1590630529E+00   0.3916334623E-04  -0.1948677646E-04   0.7832669245E-04  -0.3897355293E-04   0.9136945451E-01  -0.1064164421E-01   0.0000000000E+00   0.2445565639E-02
   0.1445668549E+00   0.1343882882E+00   0.5184322146E-04  -0.1173601345E-04   0.1036864429E-03  -0.2347202690E-04   0.8561210825E-01  -0.1280232530E-01   0.0000000000E+00  -0.4009651988E-02
   0.2660406553E+00   0.1379474229E+00   0.8155242546E-04  -0.3491354188E-05   0.1631048509E-03  -0.6982708376E-05   0.7041339909E-01   0.1894739116E-02   0.0000000000E+00  -0.5720521703E-02
   0.1818079202E+00   0.9468069134E-01   0.6893013696E-04  -0.3828821140E-05   0.1378602739E-03  -0.7657642279E-05   0.5508195350E-01  -0.7048926067E-02   0.0000000000E+00  -0.1587974523E-01
   0.1482613160E+00   0.9103577116E-01   0.6262817447E-04  -0.6012938037E-05   0.1252563489E-03  -0.1202587607E-04   0.6358321385E-01  -0.1315570686E-01   0.0000000000E+00  -0.1635061456E-01
   0.1192364646E+00   0.1241107902E+00   0.4647035414E-04  -0.1446694293E-04   0.9294070828E-04  -0.2893388586E-04   0.9033749811E-01  -0.1573966455E-01   0.0000000000E+00  -0.5696517573E-02
   0.2121225722E+00   0.8614317869E-01   0.7602382925E-04  -0.2038429535E-05   0.1520476585E-03  -0.4076859071E-05   0.4976470183E-01   0.6683886504E-03   0.0000000000E+00  -0.1250182502E-01
   0.2376492741E+00   0.1372016531E+00   0.7517045817E-04  -0.4340889309E-05   0.1503409163E-03  -0.8681778619E-05   0.6854059800E-01   0.8291726862E-03   0.0000000000E+00  -0.7213112344E-02
   0.2064344438E+00   0.1242794769E+00   0.6954859570E-04  -0.4853199136E-05   0.1390971914E-03  -0.9706398272E-05   0.7051639537E-01  -0.3600031677E-02   0.0000000000E+00  -0.8847935665E-02
   0.1113240639E+00   0.1477259412E+00   0.3902038200E-04  -0.1926792095E-04   0.7804076400E-04  -0.3853584189E-04   0.9265841543E-01  -0.1146244478E-01   0.0000000000E+00   0.2449077993E-02
   0.2520864025E+00   0.1354068868E+00   0.7863266111E-04  -0.3719908726E-05   0.1572653222E-03  -0.7439817451E-05   0.6580375546E-01   0.1896328896E-02   0.0000000000E+00  -0.7311979704E-02
   0.1041505624E+00   0.1576029837E+00   0.3502172596E-04  -0.2201917737E-04   0.7004345191E-04  -0.4403835474E-04   0.9396598827E-01  -0.9326196276E-02   0.0000000000E+00   0.5453875222E-02
   0.2230011949E+00   0.1385232826E+00   0.7159179172E-04  -0.5091973156E-05   0.1431835834E-03  -0.1018394631E-04   0.7310554510E-01  -0.1791447674E-02   0.0000000000E+00  -0.7088536284E-02
   0.1708631523E+00   0.1612352218E+00   0.5488135906E-04  -0.1147581341E-04   0.1097627181E-03  -0.2295162682E-04   0.8229519925E-01  -0.6475668401E-02   0.0000000000E+00  -0.3796021666E-02
   0.1748185643E+00   0.1458207555E+00   0.5833050481E-04  -0.9372758251E-05   0.1166610096E-03  -0.1874551650E-04   0.8055034508E-01  -0.9484189496E-02   0.0000000000E+00  -0.5872368442E-02
   0.1547000178E+00   0.1085530228E+00   0.6001035229E-04  -0.7321323537E-05   0.1200207046E-03  -0.1464264707E-04   0.7054386626E-01  -0.1188171575E-01   0.0000000000E+00  -0.1280782125E-01
   0.1779257761E+00   0.1298275517E+00   0.6176868986E-04  -0.7391597549E-05   0.1235373797E-03  -0.1478319510E-04   0.7134593395E-01  -0.8576313162E-02   0.0000000000E+00  -0.1072148501E-01
   0.1125468509E+00   0.8586891498E-01   0.5599153413E-04  -0.1045459861E-04   0.1119830683E-03  -0.2090919722E-04   0.7438234635E-01  -0.1781116264E-01   0.0000000000E+00  -0.1661469787E-01
   0.1888981646E+00   0.1114981419E+00   0.6750953057E-04  -0.4822209051E-05   0.1350190611E-03  -0.9644418103E-05   0.6406872298E-01  -0.4861647782E-02   0.0000000000E+00  -0.1201763473E-01
   0.2021722498E+00   0.1076127222E+00   0.7102510501E-04  -0.3781769804E-05   0.1420502100E-03  -0.7563539608E-05   0.6564017474E-01  -0.3654897850E-02   0.0000000000E+00  -0.1075634530E-01
   0.2205640012E+00   0.1218933080E+00   0.7305699034E-04  -0.3979012255E-05   0.1461139807E-03  -0.7958024511E-05   0.6696827051E-01  -0.2472333653E-02   0.0000000000E+00  -0.9691366383E-02
   0.9861085552E-01   0.1385793976E+00   0.3655614070E-04  -0.2072270405E-04   0.7311228139E-04  -0.4144540810E-04   0.9581264007E-01  -0.1155671382E-01   0.0000000000E+00   0.2543363831E-02
   0.2354284401E+00   0.1201046102E+00   0.7649827927E-04  -0.3295256590E-05   0.1529965585E-03  -0.6590513181E-05   0.6372745921E-01   0.1590193438E-02   0.0000000000E+00  -0.8255810942E-02
   0.1981153581E+00   0.1422393261E+00   0.6499819808E-04  -0.6942541395E-05   0.1299963962E-03  -0.1388508279E-04   0.7650393562E-01  -0.5775980714E-02   0.0000000000E+00  -0.7046674980E-02
   0.1035630992E+00   0.1015318777E+00   0.4811692395E-04  -0.1442249676E-04   0.9623384789E-04  -0.2884499352E-04   0.8275221182E-01  -0.1398418381E-01   0.0000000000E+00  -0.1520942415E-01
   0.1275716986E+00   0.9478397143E-01   0.5675746352E-04  -0.9031241284E-05   0.1135149270E-03  -0.1806248257E-04   0.7553645295E-01  -0.1810523390E-01   0.0000000000E+00  -0.1455562278E-01
   0.1579630428E+00   0.1417699545E+00   0.5432151187E-04  -0.1084998967E-04   0.1086430237E-03  -0.2169997934E-04   0.8055034508E-01  -0.9484189496E-02   0.0000000000E+00  -0.5872368442E-02
   0.1712905327E+00   0.1026483873E+00   0.6516423814E-04  -0.5218950371E-05   0.1303284763E-03  -0.1043790074E-04   0.6143085403E-01  -0.8268982502E-02   0.0000000000E+00  -0.1475276671E-01
   0.1598852779E+00   0.9629401387E-01   0.6395628979E-04  -0.5499177674E-05   0.1279125796E-03  -0.1099835535E-04   0.5899090031E-01  -0.1078885277E-01   0.0000000000E+00  -0.1661789648E-01
   0.1663436297E+00   0.1136121785E+00   0.6182889115E-04  -0.6741153853E-05   0.1236577823E-03  -0.1348230771E-04   0.7319122030E-01  -0.1105734031E-01   0.0000000000E+00  -0.1102854148E-01
   0.1634206749E+00   0.1268129424E+00   0.5853231165E-04  -0.8483122510E-05   0.1170646233E-03  -0.1696624502E-04   0.7319122030E-01  -0.1105734031E-01   0.0000000000E+00  -0.1102854148E-01
   0.1367201284E+00   0.1149660154E+00   0.5380206527E-04  -0.1033628116E-04   0.1076041305E-03  -0.2067256233E-04   0.8191070632E-01  -0.1569988788E-01   0.0000000000E+00  -0.8868350631E-02
   0.1330571916E+00   0.1410430651E+00   0.4712904748E-04  -0.1437153875E-04   0.9425809496E-04  -0.2874307750E-04   0.8659926370E-01  -0.1436102566E-01   0.0000000000E+00  -0.4603296210E-02
   0.1331864275E+00   0.1276285572E+00   0.4989215886E-04  -0.1256177419E-04   0.9978431773E-04  -0.2512354837E-04   0.8659926370E-01  -0.1436102566E-01   0.0000000000E+00  -0.4603296210E-02
   0.1209122535E+00   0.1092691629E+00   0.5079317665E-04  -0.1207672126E-04   0.1015863533E-03  -0.2415344252E-04   0.7968248101E-01  -0.1688723312E-01   0.0000000000E+00  -0.1144058879E-01
   0.1365055299E+00   0.8186313835E-01   0.6257081608E-04  -0.6271657695E-05   0.1251416322E-03  -0.1254331539E-04   0.5333653630E-01  -0.1784574499E-01   0.0000000000E+00  -0.2036585415E-01
   0.1417641666E+00   0.1023853809E+00   0.5823451714E-04  -0.8057938354E-05   0.1164690343E-03  -0.1611587671E-04   0.7085935898E-01  -0.1436786432E-01   0.0000000000E+00  -0.1401638600E-01
   0.1582472271E+00   0.8359460901E-01   0.6649221212E-04  -0.4389020131E-05   0.1329844242E-03  -0.8778040261E-05   0.5899090031E-01  -0.1078885277E-01   0.0000000000E+00  -0.1661789648E-01
   0.1772583756E+00   0.1148011332E+00   0.6423994036E-04  -0.5941176202E-05   0.1284798807E-03  -0.1188235240E-04   0.7035060797E-01  -0.9663726700E-02   0.0000000000E+00  -0.1181565380E-01
   0.1071650836E+00   0.1277170587E+00   0.4178239453E-04  -0.1736660267E-04   0.8356478906E-04  -0.3473320534E-04   0.9583799393E-01  -0.1316026745E-01   0.0000000000E+00  -0.4764442027E-03
   0.1183379060E+00   0.1375689680E+00   0.4322348921E-04  -0.1651824005E-04   0.8644697842E-04  -0.3303648009E-04   0.9262020714E-01  -0.1270733945E-01   0.0000000000E+00   0.6276682337E-03
   0.1925282088E+00   0.1280914545E+00   0.6569109078E-04  -0.6057343547E-05   0.1313821816E-03  -0.1211468709E-04   0.7308715974E-01  -0.7141737814E-02   0.0000000000E+00  -0.9260533676E-02
   0.2096337479E+00   0.1388826375E+00   0.6832505444E-04  -0.5865920099E-05   0.1366501089E-03  -0.1173184020E-04   0.7412687963E-01  -0.3347450513E-02   0.0000000000E+00  -0.7293199553E-02
   0.1995069058E+00   0.1610272336E+00   0.6283103013E-04  -0.8578123503E-05   0.1256620603E-03  -0.1715624701E-04   0.7852385305E-01  -0.5017281204E-02   0.0000000000E+00  -0.5719631738E-02
   0.1893414315E+00   0.1513876742E+00   0.6141216391E-04  -0.8535428891E-05   0.1228243278E-03  -0.1707085778E-04   0.8022137432E-01  -0.6108218109E-02   0.0000000000E+00  -0.5030687549E-02
           1           5         812           8
           5           2           6         812
         812           6           3           7
           8         812           7           4
           9          13         813          16
          13          10          14         813
         813          14          11          15
          16         813          15          12
          17          21         814          24
          21          18          22         814
         814          22          19          23
          24         814          23          20
          25          29         815          32
          29          26          30         815
         815          30          27          31
          32         815          31          28
          33          37         816          40
          37          34          38         816
         816          38          35          39
          40         816          39          36
          41          45         817          48
          45          42          46         817
         817          46          43          47
          48         817          47          44
          49          53         818          56
          53          50          54         818
         818          54          51          55
          56         818          55          52
          57          61         819          64
          61          58          62         819
         819          62          59          63
          64         819          63          60
          65          67         820          69
          67          66          68         820
         820          68           4           7
          69         820           7           3
           2           5         821          74
           5           1          72         821
         821          72          70          73
          74         821          73          71
          75          79         822          82
          79          76          80         822
         822          80          77          81
          82         822          81          78
          83          85         823          87
          85          84          86         823
         823          86          71          73
          87         823          73          70
          88          91         824          94
          91          83          92         824
         824          92          89          93
          94         824          93          90
          95          98         825         101
          98          17          99         825
         825          99          96         100
         101         825         100          97
          83          87         826          92
          87          70         102         826
         826         102          77         103
          92         826         103          89
         104         108         827         111
         108         105         109         827
         827         109         106         110
         111         827         110         107
         107         110         828         116
         110         106         114         828
         828         114         112         115
         116         828         115         113
         117         121         829         124
         121         118         122         829
         829         122         119         123
         124         829         123         120
         118         127         830         122
         127         125         128         830
         830         128         126         129
         122         830         129         119
         130         134         831         137
         134         131         135         831
         831         135         132         136
         137         831         136         133
         138         142         832         145
         142         139         143         832
         832         143         140         144
         145         832         144         141
         146         150         833         153
         150         147         151         833
         833         151         148         152
         153         833         152         149
         154         156         834         158
         156         155         157         834
         834         157          49          56
         158         834          56          52
          51         161         835          55
         161         159         162         835
         835         162         160         163
          55         835         163          52
         164         166         836         168
         166         165         167         836
         836         167          44          47
         168         836          47          43
         169         173         837         176
         173         170         174         837
         837         174         171         175
         176         837         175         172
         177         181         838         184
         181         178         182         838
         838         182         179         183
         184         838         183         180
         185         189         839         192
         189         186         190         839
         839         190         187         191
         192         839         191         188
         188         191         840         196
         191         187         194         840
         840         194         131         195
         196         840         195         193
         130         198         841         134
         198         197         199         841
         841         199         193         195
         134         841         195         131
         197         198         842         203
         198         130         201         842
         842         201         125         202
         203         842         202         200
         118         205         843         127
         205         204         206         843
         843         206         200         202
         127         843         202         125
         207         208         844         210
         208         117         209         844
         844         209         113         115
         210         844         115         112
          95         212         845          98
         212         211         213         845
         845         213          18          21
          98         845          21          17
         214         218         846         221
         218         215         219         846
         846         219         216         220
         221         846         220         217
          20         223         847         225
         223         222         224         847
         847         224         215         218
         225         847         218         214
         214         221         848         229
         221         217         227         848
         848         227         226         228
         229         848         228          96
         230         232         849         234
         232         231         233         849
         849         233          59          62
         234         849          62          58
         235         237         850         239
         237         230         234         850
         850         234          58         238
         239         850         238         236
         154         243         851         246
         243         240         244         851
         851         244         241         245
         246         851         245         242
         247         251         852         254
         251         248         252         852
         852         252         249         253
         254         852         253         250
          60          63         853         259
          63          59         257         853
         853         257         255         258
         259         853         258         256
         260         264         854         267
         264         261         265         854
         854         265         262         266
         267         854         266         263
         268         272         855         275
         272         269         273         855
         855         273         270         274
         275         855         274         271
         269         276         856         273
         276         177         184         856
         856         184         180         277
         273         856         277         270
         170         280         857         174
         280         278         281         857
         857         281         279         282
         174         857         282         171
         283         287         858         290
         287         284         288         858
         858         288         285         289
         290         858         289         286
         291         292         859         293
         292         222         223         859
         859         223          20          23
         293         859          23          19
         294         295         860         297
         295          88         296         860
         860         296         222         292
         297         860         292         291
          66         299         861          68
         299         286         300         861
         861         300         298         301
          68         861         301           4
          84          85         862         302
          85          83          91         862
         862          91          88         295
         302         862         295         294
          70          72         863         102
          72           1         303         863
         863         303          78          81
         102         863          81          77
         222         296         864         224
         296          88          94         864
         864          94          90         304
         224         864         304         215
         305         307         865         309
         307         306         308         865
         865         308         242         245
         309         865         245         241
         310         312         866         314
         312         311         313         866
         866         313          25          32
         314         866          32          28
         315         317         867         319
         317         316         318         867
         867         318         138         145
         319         867         145         141
         204         205         868         320
         205         118         121         868
         868         121         117         208
         320         868         208         207
         120         321         869         124
         321         315         322         869
         869         322         113         209
         124         869         209         117
         104         111         870         324
         111         107         323         870
         870         323         141         144
         324         870         144         140
         325         329         871         332
         329         326         330         871
         871         330         327         331
         332         871         331         328
         326         329         872         334
         329         325         333         872
         872         333         172         175
         334         872         175         171
         186         189         873         336
         189         185         335         873
         873         335         328         331
         336         873         331         327
         337         341         874         344
         341         338         342         874
         874         342         339         343
         344         874         343         340
         345         347         875         349
         347          50          53         875
         875          53          49         348
         349         875         348         346
         350         353         876         356
         353         351         354         876
         876         354         285         355
         356         876         355         352
           9          16         877         360
          16          12         358         877
         877         358         357         359
         360         877         359         226
         298         300         878         361
         300         286         289         878
         878         289         285         354
         361         878         354         351
         362         364         879         366
         364         217         220         879
         879         220         216         365
         366         879         365         363
          97         100         880         367
         100          96         228         880
         880         228         226         359
         367         880         359         357
         125         201         881         128
         201         130         137         881
         881         137         133         368
         128         881         368         126
         236         370         882         373
         370         369         371         882
         882         371         250         372
         373         882         372         262
         131         194         883         135
         194         187         375         883
         883         375         374         376
         135         883         376         132
         186         378         884         190
         378         377         379         884
         884         379         374         375
         190         884         375         187
         271         380         885         275
         380         260         267         885
         885         267         263         381
         275         885         381         268
         139         142         886         383
         142         138         382         886
         886         382         306         307
         383         886         307         305
         338         341         887         385
         341         337         384         887
         887         384         178         181
         385         887         181         177
          17          24         888          99
          24          20         225         888
         888         225         214         229
          99         888         229          96
         231         387         889         233
         387         386         388         889
         889         388         255         257
         233         889         257          59
         389         391         890         393
         391         390         392         890
         890         392         284         287
         393         890         287         283
         263         395         891         381
         395         249         396         891
         891         396         394         397
         381         891         397         268
         261         398         892         265
         398         235         239         892
         892         239         236         373
         265         892         373         262
         399         403         893         406
         403         400         404         893
         893         404         401         405
         406         893         405         402
         177         276         894         385
         276         269         408         894
         894         408         407         409
         385         894         409         338
         410         412         895         414
         412         411         413         895
         895         413         327         330
         414         895         330         326
         410         415         896         412
         415         337         344         896
         896         344         340         416
         412         896         416         411
          10         417         897          14
         417         255         388         897
         897         388         386         418
          14         897         418          11
          76          79         898         423
          79          75         421         898
         898         421         419         422
         423         898         422         420
          78         424         899          82
         424         298         361         899
         899         361         351         425
          82         899         425          75
         390         391         900         427
         391         389         426         900
         900         426          36          39
         427         900          39          35
         165         430         901         167
         430         428         431         901
         901         431         429         432
         167         901         432          44
          34          37         902         434
          37          33         433         902
         902         433          41          48
         434         902          48          44
         435         437         903         439
         437         436         438         903
         903         438         165         166
         439         903         166         164
         298         424         904         301
         424          78         303         904
         904         303           1           8
         301         904           8           4
          52         163         905         158
         163         160         440         905
         905         440         240         243
         158         905         243         154
         441         445         906         448
         445         442         446         906
         906         446         443         447
         448         906         447         444
         442         450         907         452
         450         449         451         907
         907         451         119         129
         452         907         129         126
         315         319         908         322
         319         141         323         908
         908         323         107         116
         322         908         116         113
         126         368         909         452
         368         133         453         909
         909         453         443         446
         452         909         446         442
         400         403         910         456
         403         399         454         910
         910         454         369         455
         456         910         455          57
         159         161         911         458
         161          51         457         911
         911         457         436         437
         458         911         437         435
         459         460         912         461
         460         436         457         912
         912         457          51          54
         461         912          54          50
         133         136         913         453
         136         132         463         913
         913         463         462         464
         453         913         464         443
         215         304         914         219
         304          90         466         914
         914         466         465         467
         219         914         467         216
         468         469         915         470
         469         465         466         915
         915         466          90          93
         470         915          93          89
          76         471         916          80
         471         468         470         916
         916         470          89         103
          80         916         103          77
         120         123         917         474
         123         119         451         917
         917         451         449         473
         474         917         473         472
         475         476         918         477
         476         462         463         918
         918         463         132         376
         477         918         376         374
         306         480         919         308
         480         478         481         919
         919         481         479         482
         308         919         482         242
         483         485         920         488
         485         155         486         920
         920         486         479         487
         488         920         487         484
         316         489         921         318
         489         478         480         921
         921         480         306         382
         318         921         382         138
         186         336         922         378
         336         327         413         922
         922         413         411         490
         378         922         490         377
         407         408         923         491
         408         269         272         923
         923         272         268         397
         491         923         397         394
         492         494         924         496
         494         493         495         924
         924         495         407         491
         496         924         491         394
         369         370         925         455
         370         236         238         925
         925         238          58          61
         455         925          61          57
         497         501         926         504
         501         498         502         926
         926         502         499         503
         504         926         503         500
         262         372         927         266
         372         250         253         927
         927         253         249         395
         266         927         395         263
         279         505         928         506
         505         178         384         928
         928         384         337         415
         506         928         415         410
         278         507         929         281
         507         179         182         929
         929         182         178         505
         281         929         505         279
          10         509         930         417
         509         508         510         930
         930         510         256         258
         417         930         258         255
         508         509         931         512
         509          10          13         931
         931          13           9         511
         512         931         511         362
         513         515         932         517
         515          60         259         932
         932         259         256         516
         517         932         516         514
         248         518         933         252
         518         492         496         933
         933         496         394         396
         252         933         396         249
         519         520         934         523
         520         346         521         934
         934         521         483         522
         523         934         522         310
         420         422         935         528
         422         419         526         935
         935         526         524         527
         528         935         527         525
         529         530         936         532
         530         401         404         936
         936         404         400         531
         532         936         531         513
         533         535         937         537
         535         534         536         937
         937         536         340         343
         537         937         343         339
         538         540         938         542
         540         539         541         938
         938         541         525         527
         542         938         527         524
         479         486         939         482
         486         155         156         939
         939         156         154         246
         482         939         246         242
         442         445         940         450
         445         441         544         940
         940         544         543         545
         450         940         545         449
         546         548         941         550
         548         547         549         941
         941         549          28          31
         550         941          31          27
         551         552         942         554
         552         478         489         942
         942         489         316         553
         554         942         553         472
         472         553         943         474
         553         316         317         943
         943         317         315         321
         474         943         321         120
         449         545         944         473
         545         543         555         944
         944         555         551         554
         473         944         554         472
         556         558         945         560
         558         557         559         945
         945         559         429         431
         560         945         431         428
         165         438         946         430
         438         436         460         946
         946         460         459         561
         430         946         561         428
         279         506         947         282
         506         410         414         947
         947         414         326         334
         282         947         334         171
          75         425         948         421
         425         351         353         948
         948         353         350         562
         421         948         562         419
         563         567         949         570
         567         564         568         949
         949         568         565         569
         570         949         569         566
         571         572         950         574
         572         465         469         950
         950         469         468         573
         574         950         573         525
         420         528         951         423
         528         525         573         951
         951         573         468         471
         423         951         471          76
         575         577         952         579
         577         576         578         952
         952         578         539         540
         579         952         540         538
         248         582         953         518
         582         580         583         953
         953         583         581         584
         518         953         584         492
         377         490         954         585
         490         411         416         954
         954         416         340         536
         585         954         536         534
         443         464         955         447
         464         462         587         955
         955         587         586         588
         447         955         588         444
         586         587         956         591
         587         462         476         956
         956         476         475         590
         591         956         590         589
         478         552         957         481
         552         551         592         957
         957         592         484         487
         481         957         487         479
         593         594         958         595
         594         493         494         958
         958         494         492         584
         595         958         584         581
         217         364         959         227
         364         362         511         959
         959         511           9         360
         227         959         360         226
         475         477         960         596
         477         374         379         960
         960         379         377         585
         596         960         585         534
         250         371         961         254
         371         369         454         961
         961         454         399         597
         254         961         597         247
          50         347         962         461
         347         345         598         962
         962         598         498         599
         461         962         599         459
          57          64         963         456
          64          60         515         963
         963         515         513         531
         456         963         531         400
         600         602         964         604
         602         601         603         964
         964         603          35          38
         604         964          38          34
         338         409         965         342
         409         407         495         965
         965         495         493         605
         342         965         605         339
         557         608         966         611
         608         497         609         966
         966         609         606         610
         611         966         610         607
         514         516         967         614
         516         256         510         967
         967         510         508         613
         614         967         613         612
         539         615         968         541
         615         363         616         968
         968         616         571         574
         541         968         574         525
         362         366         969         512
         366         363         617         969
         969         617         612         613
         512         969         613         508
         429         618         970         432
         618         600         604         970
         970         604          34         434
         432         970         434          44
         346         348         971         521
         348          49         157         971
         971         157         155         485
         521         971         485         483
          26          29         972         620
          29          25         619         972
         972         619         441         448
         620         972         448         444
         543         544         973         621
         544         441         619         973
         973         619          25         313
         621         973         313         311
         484         622         974         488
         622         311         312         974
         974         312         310         522
         488         974         522         483
         623         624         975         625
         624         529         532         975
         975         532         513         517
         625         975         517         514
         551         555         976         592
         555         543         621         976
         976         621         311         622
         592         976         622         484
         402         405         977         630
         405         401         628         977
         977         628         626         629
         630         977         629         627
         419         562         978         526
         562         350         632         978
         978         632         631         633
         526         978         633         524
         634         635         979         636
         635         390         427         979
         979         427          35         603
         636         979         603         601
         571         616         980         572
         616         363         365         980
         980         365         216         467
         572         980         467         465
         533         537         981         637
         537         339         605         981
         981         605         493         594
         637         981         594         593
         352         639         982         356
         639         638         640         982
         982         640         631         632
         356         982         632         350
         641         642         983         644
         642         589         643         983
         983         643         533         637
         644         983         637         593
         475         596         984         590
         596         534         535         984
         984         535         533         643
         590         984         643         589
         444         588         985         620
         588         586         646         985
         985         646         645         647
         620         985         647          26
         247         597         986         650
         597         399         406         986
         986         406         402         649
         650         986         649         648
         651         653         987         655
         653         589         642         987
         987         642         641         654
         655         987         654         652
         648         656         988         650
         656         580         582         988
         988         582         248         251
         650         988         251         247
         576         657         989         658
         657         623         625         989
         989         625         514         614
         658         989         614         612
         659         662         990         665
         662         660         663         990
         990         663         627         664
         665         990         664         661
         660         666         991         668
         666         146         667         991
         991         667         580         656
         668         991         656         648
         149         152         992         670
         152         148         669         992
         992         669         652         654
         670         992         654         641
         671         672         993         673
         672         538         542         993
         993         542         524         633
         673         993         633         631
         565         674         994         675
         674         626         628         994
         994         628         401         530
         675         994         530         529
         556         560         995         676
         560         428         561         995
         995         561         459         599
         676         995         599         498
         607         677         996         611
         677         600         618         996
         996         618         429         559
         611         996         559         557
         499         502         997         680
         502         498         598         997
         997         598         345         679
         680         997         679         678
         678         679         998         681
         679         345         349         998
         998         349         346         520
         681         998         520         519
         310         314         999         523
         314          28         549         999
         999         549         547         682
         523         999         682         519
         547         548        1000         687
         548         546         685        1000
        1000         685         683         686
         687        1000         686         684
         284         392        1001         690
         392         390         635        1001
        1001         635         634         689
         690        1001         689         688
         498         501        1002         676
         501         497         608        1002
        1002         608         557         558
         676        1002         558         556
         601         602        1003         693
         602         600         677        1003
        1003         677         607         692
         693        1003         692         691
         352         355        1004         694
         355         285         288        1004
        1004         288         284         690
         694        1004         690         688
         688         696        1005         694
         696         695         697        1005
        1005         697         638         639
         694        1005         639         352
         149         698        1006         153
         698         581         583        1006
        1006         583         580         667
         153        1006         667         146
          26         647        1007          30
         647         645         700        1007
        1007         700         699         701
          30        1007         701          27
         147         150        1008         706
         150         146         704        1008
        1008         704         702         705
         706        1008         705         703
         539         578        1009         615
         578         576         658        1009
        1009         658         612         617
         615        1009         617         363
         648         649        1010         668
         649         402         630        1010
        1010         630         627         663
         668        1010         663         660
         149         670        1011         698
         670         641         644        1011
        1011         644         593         595
         698        1011         595         581
         566         569        1012         707
         569         565         675        1012
        1012         675         529         624
         707        1012         624         623
         678         709        1013         680
         709         684         710        1013
        1013         710         708         711
         680        1013         711         499
         712         716        1014         719
         716         713         717        1014
        1014         717         714         718
         719        1014         718         715
         623         657        1015         707
         657         576         577        1015
        1015         577         575         720
         707        1015         720         566
         564         722        1016         568
         722         721         723        1016
        1016         723         626         674
         568        1016         674         565
         566         720        1017         570
         720         575         725        1017
        1017         725         724         726
         570        1017         726         563
         727         728        1018         730
         728         712         719        1018
        1018         719         715         729
         730        1018         729         564
         651         731        1019         653
         731         645         646        1019
        1019         646         586         591
         653        1019         591         589
         499         711        1020         503
         711         708         733        1020
        1020         733         732         734
         503        1020         734         500
         735         738        1021         741
         738         736         739        1021
        1021         739         606         740
         741        1021         740         737
         695         745        1022         748
         745         742         746        1022
        1022         746         743         747
         748        1022         747         744
         519         682        1023         681
         682         547         687        1023
        1023         687         684         709
         681        1023         709         678
         652         669        1024         752
         669         148         750        1024
        1024         750         749         751
         752        1024         751         699
         753         756        1025         759
         756         754         757        1025
        1025         757         683         758
         759        1025         758         755
         724         761        1026         726
         761         671         762        1026
        1026         762         760         763
         726        1026         763         563
         645         731        1027         700
         731         651         655        1027
        1027         655         652         752
         700        1027         752         699
         575         579        1028         725
         579         538         672        1028
        1028         672         671         761
         725        1028         761         724
         147         764        1029         151
         764         755         765        1029
        1029         765         749         750
         151        1029         750         148
         627         629        1030         664
         629         626         723        1030
        1030         723         721         766
         664        1030         766         661
         767         769        1031         771
         769         768         770        1031
        1031         770         661         766
         771        1031         766         721
         714         717        1032         775
         717         713         773        1032
        1032         773         735         774
         775        1032         774         772
         776         778        1033         780
         778         768         769        1033
        1033         769         767         779
         780        1033         779         777
         634         636        1034         783
         636         601         693        1034
        1034         693         691         782
         783        1034         782         781
         754         784        1035         786
         784         776         785        1035
        1035         785         732         733
         786        1035         733         708
         754         786        1036         757
         786         708         710        1036
        1036         710         684         686
         757        1036         686         683
         683         685        1037         758
         685         546         787        1037
        1037         787         749         765
         758        1037         765         755
         671         673        1038         762
         673         631         640        1038
        1038         640         638         788
         762        1038         788         760
         699         751        1039         701
         751         749         787        1039
        1039         787         546         550
         701        1039         550          27
         768         789        1040         791
         789         753         790        1040
        1040         790         703         705
         791        1040         705         702
         634         783        1041         689
         783         781         792        1041
        1041         792         695         696
         689        1041         696         688
         781         782        1042         796
         782         691         794        1042
        1042         794         736         795
         796        1042         795         793
         721         722        1043         771
         722         564         729        1043
        1043         729         715         797
         771        1043         797         767
         732         799        1044         734
         799         798         800        1044
        1044         800         772         801
         734        1044         801         500
         500         801        1045         802
         801         772         774        1045
        1045         774         735         741
         802        1045         741         737
         714         775        1046         804
         775         772         800        1046
        1046         800         798         803
         804        1046         803         777
         777         779        1047         804
         779         767         797        1047
        1047         797         715         718
         804        1047         718         714
         742         805        1048         807
         805         793         806        1048
        1048         806         713         716
         807        1048         716         712
         727         730        1049         809
         730         564         567        1049
        1049         567         563         808
         809        1049         808         743
         743         746        1050         809
         746         742         807        1050
        1050         807         712         728
         809        1050         728         727
         742         745        1051         805
         745         695         792        1051
        1051         792         781         796
         805        1051         796         793
         607         610        1052         692
         610         606         739        1052
        1052         739         736         794
         692        1052         794         691
         713         806        1053         773
         806         793         795        1053
        1053         795         736         738
         773        1053         738         735
         737         740        1054         802
         740         606         609        1054
        1054         609         497         504
         802        1054         504         500
         798         799        1055         803
         799         732         785        1055
        1055         785         776         780
         803        1055         780         777
         638         697        1056         788
         697         695         748        1056
        1056         748         744         810
         788        1056         810         760
         760         810        1057         763
         810         744         747        1057
        1057         747         743         808
         763        1057         808         563
         776         784        1058         778
         784         754         756        1058
        1058         756         753         789
         778        1058         789         768
         703         790        1059         706
         790         753         759        1059
        1059         759         755         764
         706        1059         764         147
         702         704        1060         811
         704         146         666        1060
        1060         666         660         662
         811        1060         662         659
         661         770        1061         665
         770         768         791        1061
        1061         791         702         811
         665        1061         811         659
