 VARIABLES = X,Y,DU1,DU2,U1,U2,S11,S22,S33,S12
 ZONE, T="0.1000D+01" F=FEPOINT, I=  974 J= 1828
   0.3707651186E-01   0.1124028415E+00   0.2007326007E-04  -0.3245447713E-04   0.0000000000E+00   0.0000000000E+00   0.4800350524E-01   0.5809424492E-02   0.0000000000E+00  -0.4680454791E-02
   0.1952464785E-01   0.9804540107E-01   0.1561544987E-04  -0.3312553065E-04   0.0000000000E+00   0.0000000000E+00   0.7087276774E-01   0.3492151190E-02   0.0000000000E+00  -0.1251707626E-01
   0.3829889093E-01   0.9235737595E-01   0.3054832926E-04  -0.3057595206E-04   0.0000000000E+00   0.0000000000E+00   0.5141659221E-01   0.8468647918E-02   0.0000000000E+00  -0.2020785172E-01
   0.2830095004E-01   0.1052236443E+00   0.1821454130E-04  -0.3327068920E-04   0.0000000000E+00   0.0000000000E+00   0.5668178209E-01   0.4696533421E-02   0.0000000000E+00  -0.9130602867E-02
   0.2905168586E-01   0.9566206101E-01   0.2321805887E-04  -0.3197428743E-04   0.0000000000E+00   0.0000000000E+00   0.6548657931E-01   0.7129127834E-02   0.0000000000E+00  -0.1862599226E-01
   0.3768676820E-01   0.1023801525E+00   0.2437759618E-04  -0.3147554685E-04   0.0000000000E+00   0.0000000000E+00   0.4957136773E-01   0.6371174442E-02   0.0000000000E+00  -0.1166113611E-01
   0.1069360107E+00   0.2330915057E+00   0.2616969078E-04  -0.2929328556E-04   0.0000000000E+00   0.0000000000E+00   0.2865148579E-01  -0.1482555471E-03   0.0000000000E+00   0.1658647116E-02
   0.9724293010E-01   0.2499674809E+00   0.2070619849E-04  -0.3251910997E-04   0.0000000000E+00   0.0000000000E+00   0.2738425100E-01   0.2050762092E-04   0.0000000000E+00   0.7985051262E-04
   0.8738989027E-01   0.2329931694E+00   0.2072396766E-04  -0.3294761397E-04   0.0000000000E+00   0.0000000000E+00   0.2709586689E-01  -0.7378819136E-04   0.0000000000E+00   0.1938528488E-02
   0.1020895322E+00   0.2415294767E+00   0.2349924523E-04  -0.3092334910E-04   0.0000000000E+00   0.0000000000E+00   0.2800487709E-01  -0.4509419225E-04   0.0000000000E+00   0.8853740609E-03
   0.9231650097E-01   0.2414803282E+00   0.2080957062E-04  -0.3273082181E-04   0.0000000000E+00   0.0000000000E+00   0.2716825621E-01  -0.5861694394E-04   0.0000000000E+00   0.9891865254E-03
   0.9716291530E-01   0.2330423324E+00   0.2340779517E-04  -0.3112557445E-04   0.0000000000E+00   0.0000000000E+00   0.2792539818E-01  -0.8939265626E-04   0.0000000000E+00   0.1814472138E-02
   0.8879127011E-01   0.7379123489E-01   0.5609200861E-04  -0.1510310889E-04   0.0000000000E+00   0.0000000000E+00   0.1643040232E-01  -0.2580822137E-02   0.0000000000E+00  -0.6817949350E-02
   0.7333776311E-01   0.8912364977E-01   0.4472540785E-04  -0.2114632678E-04   0.0000000000E+00   0.0000000000E+00   0.2772470973E-01   0.1124095954E-02   0.0000000000E+00  -0.8325949082E-02
   0.7076632482E-01   0.7068872727E-01   0.5564341607E-04  -0.2195413443E-04   0.0000000000E+00   0.0000000000E+00   0.1033799336E-01   0.9064621159E-02   0.0000000000E+00  -0.9842229745E-02
   0.8106479195E-01   0.8145742221E-01   0.5068035339E-04  -0.1814859339E-04   0.0000000000E+00   0.0000000000E+00   0.2199604045E-01  -0.6076967159E-03   0.0000000000E+00  -0.7626780051E-02
   0.7205161750E-01   0.7990653345E-01   0.4975800477E-04  -0.2120904810E-04   0.0000000000E+00   0.0000000000E+00   0.1915258184E-01   0.4766733902E-02   0.0000000000E+00  -0.9594830418E-02
   0.7977850747E-01   0.7224028765E-01   0.5558147383E-04  -0.1822204962E-04   0.0000000000E+00   0.0000000000E+00   0.1375410803E-01   0.3238068659E-02   0.0000000000E+00  -0.7906064991E-02
   0.1653172602E+00   0.2330874407E+00   0.4387722956E-04  -0.1947027053E-04   0.0000000000E+00   0.0000000000E+00   0.3130921517E-01  -0.1592934287E-03   0.0000000000E+00   0.3942126167E-03
   0.1555939942E+00   0.2499774973E+00   0.3843323091E-04  -0.2250271123E-04   0.0000000000E+00   0.0000000000E+00   0.3245538621E-01   0.3328981018E-04   0.0000000000E+00   0.1766633633E-04
   0.1458640216E+00   0.2330960090E+00   0.3781560343E-04  -0.2240597037E-04   0.0000000000E+00   0.0000000000E+00   0.3080146081E-01  -0.1827250657E-03   0.0000000000E+00   0.8099631142E-03
   0.1604556811E+00   0.2415324841E+00   0.4120914292E-04  -0.2097192258E-04   0.0000000000E+00   0.0000000000E+00   0.3182904712E-01  -0.7175828801E-04   0.0000000000E+00   0.2332619129E-03
   0.1507290064E+00   0.2415367729E+00   0.3812344977E-04  -0.2243412906E-04   0.0000000000E+00   0.0000000000E+00   0.3155561807E-01  -0.8277469533E-04   0.0000000000E+00   0.3851604426E-03
   0.1555906285E+00   0.2330917771E+00   0.4083445952E-04  -0.2088585991E-04   0.0000000000E+00   0.0000000000E+00   0.3114878669E-01  -0.1356630881E-03   0.0000000000E+00   0.5988153326E-03
   0.1018814135E+00   0.5682342076E-01   0.6545248244E-04  -0.9701141767E-05   0.0000000000E+00   0.0000000000E+00   0.8219028900E-02  -0.6793073389E-02   0.0000000000E+00  -0.4871374685E-02
   0.8321187679E-01   0.5554033576E-01   0.6491728908E-04  -0.1668794492E-04   0.0000000000E+00   0.0000000000E+00   0.5031122828E-03  -0.3313749930E-03   0.0000000000E+00  -0.6280473572E-03
   0.9533667252E-01   0.6530735997E-01   0.6110651837E-04  -0.1237183385E-04   0.0000000000E+00   0.0000000000E+00   0.1173965026E-01  -0.5228180770E-02   0.0000000000E+00  -0.5552097718E-02
   0.8600144865E-01   0.6466605776E-01   0.6037984946E-04  -0.1562124073E-04   0.0000000000E+00   0.0000000000E+00   0.8332817196E-02  -0.1102003547E-02   0.0000000000E+00  -0.4309587747E-02
   0.9254641246E-01   0.5618238591E-01   0.6494835786E-04  -0.1268688825E-04   0.0000000000E+00   0.0000000000E+00   0.5112556025E-02  -0.3607655886E-02   0.0000000000E+00  -0.2739049437E-02
   0.9815425871E-01   0.1950347226E-01   0.7573211451E-04  -0.5560139917E-05   0.0000000000E+00   0.0000000000E+00  -0.1616995646E-02  -0.2291806361E-01   0.0000000000E+00   0.3468611078E-02
   0.1000770099E+00   0.0000000000E+00   0.7700892032E-04   0.0000000000E+00   0.0000000000E+00   0.0000000000E+00  -0.3986744578E-03  -0.2818897326E-01   0.0000000000E+00   0.1747496971E-03
   0.1209112962E+00   0.0000000000E+00   0.7796623034E-04   0.0000000000E+00   0.0000000000E+00   0.0000000000E+00  -0.1415072089E-02  -0.1043428746E-01   0.0000000000E+00  -0.4096448348E-03
   0.9959518370E-01   0.9798929589E-02   0.7671319678E-04  -0.2785090731E-05   0.0000000000E+00   0.0000000000E+00  -0.1132893527E-03  -0.2807482473E-01   0.0000000000E+00   0.1567356815E-02
   0.1104943540E+00   0.0000000000E+00   0.7768802592E-04   0.0000000000E+00   0.0000000000E+00   0.0000000000E+00  -0.1194053207E-02  -0.1838775738E-01   0.0000000000E+00  -0.1503635914E-04
   0.1095332261E+00   0.9752712632E-02   0.7729808917E-04  -0.1803547560E-05   0.0000000000E+00   0.0000000000E+00  -0.1742050064E-02  -0.1736401308E-01   0.0000000000E+00   0.9641519489E-03
   0.1555789403E+00   0.2161759031E+00   0.4306328094E-04  -0.1926289554E-04   0.0000000000E+00   0.0000000000E+00   0.3029104662E-01  -0.6489288512E-03   0.0000000000E+00   0.8828315608E-03
   0.1750412661E+00   0.2161623547E+00   0.4900311435E-04  -0.1653928359E-04   0.0000000000E+00   0.0000000000E+00   0.3032997927E-01  -0.5350219791E-03   0.0000000000E+00   0.2653290578E-03
   0.1653101032E+00   0.2161691857E+00   0.4603322852E-04  -0.1784433125E-04   0.0000000000E+00   0.0000000000E+00   0.3036132495E-01  -0.5758324304E-03   0.0000000000E+00   0.5663693881E-03
   0.1701792850E+00   0.2246249112E+00   0.4646902710E-04  -0.1799177808E-04   0.0000000000E+00   0.0000000000E+00   0.3078214526E-01  -0.3695783092E-03   0.0000000000E+00   0.3541882362E-03
   0.1604480853E+00   0.2246316827E+00   0.4346230438E-04  -0.1935633879E-04   0.0000000000E+00   0.0000000000E+00   0.3076500251E-01  -0.4001833482E-03   0.0000000000E+00   0.6176748966E-03
   0.1752216023E-01   0.2244943703E+00   0.4088733799E-05  -0.4186971587E-04   0.0000000000E+00   0.0000000000E+00   0.2375900313E-01   0.7046183002E-03   0.0000000000E+00   0.1015166288E-02
   0.0000000000E+00   0.2312072261E+00   0.0000000000E+00  -0.4277689476E-04   0.0000000000E+00   0.0000000000E+00   0.2223378561E-01   0.4324268824E-03   0.0000000000E+00   0.3744647620E-04
   0.0000000000E+00   0.2124583888E+00   0.0000000000E+00  -0.4161721495E-04   0.0000000000E+00   0.0000000000E+00   0.2568988194E-01   0.1587191292E-02   0.0000000000E+00   0.3592652341E-04
   0.8761019506E-02   0.2278506662E+00   0.1983776297E-05  -0.4244780465E-04   0.0000000000E+00   0.0000000000E+00   0.2296772245E-01   0.6093540324E-03   0.0000000000E+00   0.5125955888E-03
   0.0000000000E+00   0.2218328155E+00   0.0000000000E+00  -0.4219652804E-04   0.0000000000E+00   0.0000000000E+00   0.2386864351E-01   0.9648492720E-03   0.0000000000E+00   0.1266228321E-06
   0.8761162603E-02   0.2184762619E+00   0.2126872779E-05  -0.4186111344E-04   0.0000000000E+00   0.0000000000E+00   0.2473489315E-01   0.1183919291E-02   0.0000000000E+00   0.5176394171E-03
   0.0000000000E+00   0.1187132392E+00   0.0000000000E+00  -0.3675982850E-04   0.0000000000E+00   0.0000000000E+00   0.5315554306E-01   0.7685416591E-02   0.0000000000E+00   0.6407962598E-03
   0.0000000000E+00   0.9996610865E-01   0.0000000000E+00  -0.3389234625E-04   0.0000000000E+00   0.0000000000E+00   0.7990994249E-01   0.6138877752E-03   0.0000000000E+00  -0.5164532610E-03
   0.0000000000E+00   0.1093392718E+00   0.0000000000E+00  -0.3572820935E-04   0.0000000000E+00   0.0000000000E+00   0.6534751889E-01   0.4844116863E-02   0.0000000000E+00   0.2606991345E-04
   0.9809559365E-02   0.9948470986E-01   0.7844685441E-05  -0.3376064413E-04   0.0000000000E+00   0.0000000000E+00   0.7913861940E-01   0.5479490791E-03   0.0000000000E+00  -0.6007246509E-02
   0.9760804657E-02   0.1083788971E+00   0.6288477293E-05  -0.3536586968E-04   0.0000000000E+00   0.0000000000E+00   0.6346572795E-01   0.5921345902E-02   0.0000000000E+00  -0.4761611019E-02
   0.1824492577E-01   0.1245358488E+00   0.8577368119E-05  -0.3630916508E-04   0.0000000000E+00   0.0000000000E+00   0.4794959616E-01   0.7722475415E-02   0.0000000000E+00  -0.3728123071E-03
   0.9122714440E-02   0.1216243112E+00   0.4540239756E-05  -0.3677082633E-04   0.0000000000E+00   0.0000000000E+00   0.5063465913E-01   0.7245361257E-02   0.0000000000E+00   0.4924239785E-04
   0.1888379092E-01   0.1112902886E+00   0.1110141916E-04  -0.3504936310E-04   0.0000000000E+00   0.0000000000E+00   0.5862031493E-01   0.6231165003E-02   0.0000000000E+00  -0.5388309722E-02
   0.5561750748E-01   0.1017741217E+00   0.3238758430E-04  -0.2725933533E-04   0.0000000000E+00   0.0000000000E+00   0.3960024585E-01   0.3788443330E-02   0.0000000000E+00  -0.7851940379E-02
   0.5560109458E-01   0.8312024775E-01   0.4407088017E-04  -0.2671175036E-04   0.0000000000E+00   0.0000000000E+00   0.2856216630E-01   0.1183744457E-01   0.0000000000E+00  -0.1828740993E-01
   0.4695817566E-01   0.9706553222E-01   0.3144625738E-04  -0.2913768161E-04   0.0000000000E+00   0.0000000000E+00   0.4424371944E-01   0.6385830252E-02   0.0000000000E+00  -0.1373588902E-01
   0.4717717749E-01   0.8816339925E-01   0.3750308993E-04  -0.2872835038E-04   0.0000000000E+00   0.0000000000E+00   0.4190565567E-01   0.1160644346E-01   0.0000000000E+00  -0.2080853091E-01
   0.5560858703E-01   0.9244744911E-01   0.3751523240E-04  -0.2672088572E-04   0.0000000000E+00   0.0000000000E+00   0.3436341125E-01   0.7052187108E-02   0.0000000000E+00  -0.1311544409E-01
   0.3652408972E-01   0.2153760607E+00   0.9151820770E-05  -0.3965531052E-04   0.0000000000E+00   0.0000000000E+00   0.2593113044E-01   0.9160754436E-03   0.0000000000E+00   0.2312167645E-02
   0.5762508071E-01   0.2158483572E+00   0.1463600625E-04  -0.3678977361E-04   0.0000000000E+00   0.0000000000E+00   0.2681874966E-01   0.4030389925E-03   0.0000000000E+00   0.3002885820E-02
   0.4852913248E-01   0.2330473189E+00   0.1084727702E-04  -0.3938613174E-04   0.0000000000E+00   0.0000000000E+00   0.2381164778E-01   0.1613581378E-03   0.0000000000E+00   0.1727109674E-02
   0.4707455874E-01   0.2156120950E+00   0.1186744132E-04  -0.3834397418E-04   0.0000000000E+00   0.0000000000E+00   0.2632829019E-01   0.6595011933E-03   0.0000000000E+00   0.2692374091E-02
   0.5307709330E-01   0.2244478047E+00   0.1272839951E-04  -0.3812928543E-04   0.0000000000E+00   0.0000000000E+00   0.2535347139E-01   0.3450856823E-03   0.0000000000E+00   0.2338604281E-02
   0.4252672320E-01   0.2242116597E+00   0.1011170246E-04  -0.3955133846E-04   0.0000000000E+00   0.0000000000E+00   0.2488314767E-01   0.4885021469E-03   0.0000000000E+00   0.2038765306E-02
   0.1744772950E-01   0.1456174250E+00   0.6449304022E-05  -0.3755104751E-04   0.0000000000E+00   0.0000000000E+00   0.3871364531E-01   0.6982234999E-02   0.0000000000E+00   0.1363883732E-02
   0.0000000000E+00   0.1562112385E+00   0.0000000000E+00  -0.3876146168E-04   0.0000000000E+00   0.0000000000E+00   0.3589694447E-01   0.6806301633E-02   0.0000000000E+00   0.1057061648E-03
   0.0000000000E+00   0.1374620364E+00   0.0000000000E+00  -0.3796657848E-04   0.0000000000E+00   0.0000000000E+00   0.4212975152E-01   0.8218366701E-02   0.0000000000E+00   0.3884769410E-03
   0.8723729018E-02   0.1509141330E+00   0.3088927672E-05  -0.3835503413E-04   0.0000000000E+00   0.0000000000E+00   0.3739102073E-01   0.7006572609E-02   0.0000000000E+00   0.6007264736E-03
   0.0000000000E+00   0.1468366168E+00   0.0000000000E+00  -0.3837722668E-04   0.0000000000E+00   0.0000000000E+00   0.3918851872E-01   0.7522185130E-02   0.0000000000E+00  -0.7154787963E-05
   0.8723995224E-02   0.1415395370E+00   0.3355133868E-05  -0.3794499170E-04   0.0000000000E+00   0.0000000000E+00   0.4050559285E-01   0.7573912818E-02   0.0000000000E+00   0.7607518428E-03
   0.3594420450E-01   0.1343236862E+00   0.1465130100E-04  -0.3442180523E-04   0.0000000000E+00   0.0000000000E+00   0.4087717289E-01   0.5410131914E-02   0.0000000000E+00   0.1336030933E-02
   0.2669577325E-01   0.1399703162E+00   0.1035654588E-04  -0.3622579273E-04   0.0000000000E+00   0.0000000000E+00   0.4023437465E-01   0.6338110439E-02   0.0000000000E+00   0.1234645555E-02
   0.1784613421E-01   0.1350765880E+00   0.7320812376E-05  -0.3697903503E-04   0.0000000000E+00   0.0000000000E+00   0.4325835249E-01   0.7484237408E-02   0.0000000000E+00   0.5024834354E-03
   0.2709472516E-01   0.1294296126E+00   0.1177526167E-04  -0.3552035463E-04   0.0000000000E+00   0.0000000000E+00   0.4339577922E-01   0.6302933629E-02   0.0000000000E+00   0.2706759522E-03
   0.3216457230E-01   0.2345371732E+00   0.6961195058E-05  -0.4139177832E-04   0.0000000000E+00   0.0000000000E+00   0.2243667867E-01   0.2182836273E-03   0.0000000000E+00   0.1188054590E-02
   0.1944786412E-01   0.2499566958E+00   0.3419022966E-05  -0.4330422014E-04   0.0000000000E+00   0.0000000000E+00   0.1806322690E-01  -0.9285900810E-04   0.0000000000E+00   0.1067697225E-03
   0.2580613277E-01   0.2422468451E+00   0.5103673708E-05  -0.4242994809E-04   0.0000000000E+00   0.0000000000E+00   0.2039537682E-01   0.9363724722E-04   0.0000000000E+00   0.5671327721E-03
   0.1848510858E-01   0.2372255056E+00   0.3850276785E-05  -0.4261439114E-04   0.0000000000E+00   0.0000000000E+00   0.2103147180E-01   0.2051102250E-03   0.0000000000E+00   0.5900299419E-03
   0.2484343483E-01   0.2295156901E+00   0.5594529958E-05  -0.4170487975E-04   0.0000000000E+00   0.0000000000E+00   0.2304452910E-01   0.4586161784E-03   0.0000000000E+00   0.1111870942E-02
   0.6446919161E-01   0.8612200518E-01   0.4416271243E-04  -0.2387262400E-04   0.0000000000E+00   0.0000000000E+00   0.2781668294E-01   0.6675861911E-02   0.0000000000E+00  -0.1275993238E-01
   0.6447780588E-01   0.9544878781E-01   0.3872517564E-04  -0.2430049076E-04   0.0000000000E+00   0.0000000000E+00   0.3436548589E-01   0.2971129690E-02   0.0000000000E+00  -0.8449967505E-02
   0.1289778066E+00   0.2146481111E-01   0.7668259242E-04  -0.1712287344E-05   0.0000000000E+00   0.0000000000E+00   0.1294582082E-02  -0.7088519813E-02   0.0000000000E+00  -0.3156865185E-02
   0.1135660783E+00   0.2048478418E-01   0.7625629050E-04  -0.2993715580E-05   0.0000000000E+00   0.0000000000E+00  -0.3456306922E-03  -0.1411674705E-01   0.0000000000E+00  -0.4826354972E-03
   0.1249449098E+00   0.1073223861E-01   0.7767877683E-04  -0.1023094617E-05   0.0000000000E+00   0.0000000000E+00  -0.2333929686E-04  -0.8808141223E-02   0.0000000000E+00  -0.1779545987E-02
   0.3292638471E+00   0.0000000000E+00   0.9716605927E-04   0.0000000000E+00   0.0000000000E+00   0.0000000000E+00   0.1484686457E-01   0.4450460110E-02   0.0000000000E+00  -0.7927773552E-05
   0.3500999940E+00   0.0000000000E+00   0.1000000000E-03   0.0000000000E+00   0.0000000000E+00   0.0000000000E+00   0.1498644970E-01   0.4465715280E-02   0.0000000000E+00   0.5349639979E-05
   0.3500999940E+00   0.1923075675E-01   0.1000000000E-03  -0.1314891941E-07   0.0000000000E+00   0.0000000000E+00   0.1512748882E-01   0.4404515841E-02   0.0000000000E+00  -0.4348444978E-05
   0.3396819175E+00   0.0000000000E+00   0.9858052543E-04   0.0000000000E+00   0.0000000000E+00   0.0000000000E+00   0.1495423000E-01   0.4456683528E-02   0.0000000000E+00  -0.2476202551E-04
   0.3500999940E+00   0.9615380251E-02   0.1000000000E-03  -0.4719207096E-08   0.0000000000E+00   0.0000000000E+00   0.1502870695E-01   0.4443664325E-02   0.0000000000E+00   0.4066128812E-05
   0.3396819120E+00   0.9615380893E-02   0.9857497922E-04  -0.4077457418E-08   0.0000000000E+00   0.0000000000E+00   0.1497881675E-01   0.4434775513E-02   0.0000000000E+00  -0.2573809020E-04
   0.3315266753E+00   0.2617167065E-01   0.9740227824E-04  -0.3035177839E-07   0.0000000000E+00   0.0000000000E+00   0.1522469027E-01   0.4311944816E-02   0.0000000000E+00  -0.2018853994E-03
   0.3500999940E+00   0.3846146257E-01   0.1000000000E-03  -0.7733431251E-07   0.0000000000E+00   0.0000000000E+00   0.1567071057E-01   0.4181068882E-02   0.0000000000E+00  -0.4871378090E-05
   0.3408133409E+00   0.2270121489E-01   0.9870789724E-04  -0.2061067728E-07   0.0000000000E+00   0.0000000000E+00   0.1519135803E-01   0.4354458260E-02   0.0000000000E+00  -0.1042229181E-03
   0.3500999940E+00   0.2884611936E-01   0.1000000000E-03  -0.3653567854E-07   0.0000000000E+00   0.0000000000E+00   0.1541497008E-01   0.4289197750E-02   0.0000000000E+00   0.3312228293E-05
   0.3408133146E+00   0.3231657207E-01   0.9868156328E-04  -0.4932552727E-07   0.0000000000E+00   0.0000000000E+00   0.1543990031E-01   0.4242719536E-02   0.0000000000E+00  -0.1046510211E-03
   0.3158751328E+00   0.7695500284E-01   0.9431480162E-04  -0.5689594611E-06   0.0000000000E+00   0.0000000000E+00   0.1754396716E-01   0.3245814126E-02   0.0000000000E+00  -0.8582812833E-03
   0.3328255993E+00   0.6720902355E-01   0.9724328171E-04  -0.3692467969E-06   0.0000000000E+00   0.0000000000E+00   0.1700932414E-01   0.3587001192E-02   0.0000000000E+00  -0.3999440754E-03
   0.3331817994E+00   0.8655672502E-01   0.9706738374E-04  -0.7452787070E-06   0.0000000000E+00   0.0000000000E+00   0.1825468748E-01   0.3105764431E-02   0.0000000000E+00  -0.4426537090E-03
   0.3243503809E+00   0.7208202271E-01   0.9580891952E-04  -0.4595909473E-06   0.0000000000E+00   0.0000000000E+00   0.1726834062E-01   0.3415568438E-02   0.0000000000E+00  -0.6282213191E-03
   0.3330037029E+00   0.7688289861E-01   0.9715888874E-04  -0.5365929810E-06   0.0000000000E+00   0.0000000000E+00   0.1763120306E-01   0.3342509326E-02   0.0000000000E+00  -0.4232686947E-03
   0.3245284508E+00   0.8175586658E-01   0.9566075723E-04  -0.6507249922E-06   0.0000000000E+00   0.0000000000E+00   0.1790870783E-01   0.3180731162E-02   0.0000000000E+00  -0.6467619341E-03
   0.3115097542E+00   0.3581684372E-01   0.9449924763E-04  -0.7538445219E-07   0.0000000000E+00   0.0000000000E+00   0.1531406142E-01   0.4086253325E-02   0.0000000000E+00  -0.5620026907E-03
   0.3158684978E+00   0.1595496726E-01   0.9530880920E-04  -0.1153729771E-07   0.0000000000E+00   0.0000000000E+00   0.1484043587E-01   0.4329167214E-02   0.0000000000E+00  -0.2289387134E-03
   0.3136891521E+00   0.2588591486E-01   0.9493010046E-04  -0.3403631668E-07   0.0000000000E+00   0.0000000000E+00   0.1506847016E-01   0.4207144435E-02   0.0000000000E+00  -0.3865909095E-03
   0.3236975935E+00   0.2106331947E-01   0.9634754561E-04  -0.1953300950E-07   0.0000000000E+00   0.0000000000E+00   0.1503748222E-01   0.4317300478E-02   0.0000000000E+00  -0.2150884696E-03
   0.3215182455E+00   0.3099426224E-01   0.9596648792E-04  -0.4876327513E-07   0.0000000000E+00   0.0000000000E+00   0.1527101024E-01   0.4199217297E-02   0.0000000000E+00  -0.3781023816E-03
   0.2776903675E+00   0.1796172328E-01   0.9022849074E-04  -0.2842026370E-07   0.0000000000E+00   0.0000000000E+00   0.1401737900E-01   0.3971761524E-02   0.0000000000E+00  -0.5893428166E-03
   0.2667556914E+00   0.0000000000E+00   0.8901041680E-04   0.0000000000E+00   0.0000000000E+00   0.0000000000E+00   0.1340625635E-01   0.3910371423E-02   0.0000000000E+00   0.6510260884E-07
   0.2875916274E+00   0.0000000000E+00   0.9163344448E-04   0.0000000000E+00   0.0000000000E+00   0.0000000000E+00   0.1410979116E-01   0.4171458768E-02   0.0000000000E+00   0.1216258914E-05
   0.2722230570E+00   0.8980863532E-02   0.8964698099E-04  -0.1229788631E-07   0.0000000000E+00   0.0000000000E+00   0.1367459371E-01   0.3929041334E-02   0.0000000000E+00  -0.3179328595E-03
   0.2771736429E+00   0.0000000000E+00   0.9030593725E-04   0.0000000000E+00   0.0000000000E+00   0.0000000000E+00   0.1383148593E-01   0.4062163286E-02   0.0000000000E+00  -0.2254069512E-05
   0.2826410332E+00   0.8980866142E-02   0.9096620899E-04  -0.9687633910E-08   0.0000000000E+00   0.0000000000E+00   0.1403014324E-01   0.4065361711E-02   0.0000000000E+00  -0.2741600928E-03
   0.2355704946E+00   0.1793983638E-01   0.8511964254E-04  -0.6641629986E-07   0.0000000000E+00   0.0000000000E+00   0.1217176109E-01   0.3172333757E-02   0.0000000000E+00  -0.1077201964E-02
   0.2459198762E+00   0.0000000000E+00   0.8653923463E-04   0.0000000000E+00   0.0000000000E+00   0.0000000000E+00   0.1244167309E-01   0.3537676824E-02   0.0000000000E+00  -0.2756306934E-06
   0.2565967100E+00   0.1802027561E-01   0.8758500450E-04  -0.4318676862E-07   0.0000000000E+00   0.0000000000E+00   0.1323007689E-01   0.3639715266E-02   0.0000000000E+00  -0.8142687463E-03
   0.2407452492E+00   0.8969926410E-02   0.8589317681E-04  -0.2500975972E-07   0.0000000000E+00   0.0000000000E+00   0.1225773331E-01   0.3346601404E-02   0.0000000000E+00  -0.5077825648E-03
   0.2512583326E+00   0.9010139577E-02   0.8710158058E-04  -0.1983296484E-07   0.0000000000E+00   0.0000000000E+00   0.1279030472E-01   0.3573589018E-02   0.0000000000E+00  -0.4351454999E-03
   0.2460835785E+00   0.1798005639E-01   0.8632852443E-04  -0.5350553413E-07   0.0000000000E+00   0.0000000000E+00   0.1279457088E-01   0.3432681099E-02   0.0000000000E+00  -0.9428523266E-03
   0.2989884090E+00   0.8661910959E-01   0.9114295194E-04  -0.8561064776E-06   0.0000000000E+00   0.0000000000E+00   0.1814447096E-01   0.2803765212E-02   0.0000000000E+00  -0.1356333142E-02
   0.3162542557E+00   0.9621835201E-01   0.9387466700E-04  -0.1046094996E-05   0.0000000000E+00   0.0000000000E+00   0.1892093875E-01   0.2736360619E-02   0.0000000000E+00  -0.9144345296E-03
   0.2993765004E+00   0.1058834668E+00   0.9040339385E-04  -0.1458248810E-05   0.0000000000E+00   0.0000000000E+00   0.1966454987E-01   0.2276610638E-02   0.0000000000E+00  -0.1386133905E-02
   0.3076213005E+00   0.9141873702E-01   0.9247652098E-04  -0.9448796532E-06   0.0000000000E+00   0.0000000000E+00   0.1854745980E-01   0.2778243918E-02   0.0000000000E+00  -0.1129850795E-02
   0.3078154009E+00   0.1010509290E+00   0.9217689463E-04  -0.1236039236E-05   0.0000000000E+00   0.0000000000E+00   0.1928306189E-01   0.2508775417E-02   0.0000000000E+00  -0.1151060334E-02
   0.2991824773E+00   0.9625130778E-01   0.9078034639E-04  -0.1133616846E-05   0.0000000000E+00   0.0000000000E+00   0.1890130668E-01   0.2528633678E-02   0.0000000000E+00  -0.1377605204E-02
   0.1936992160E+00   0.1783136347E-01   0.8091804938E-04  -0.1762273536E-06   0.0000000000E+00   0.0000000000E+00   0.9027832599E-02   0.1561928508E-02   0.0000000000E+00  -0.1792074280E-02
   0.2042489325E+00   0.0000000000E+00   0.8226648303E-04   0.0000000000E+00   0.0000000000E+00   0.0000000000E+00   0.9490949828E-02   0.2260976329E-02   0.0000000000E+00  -0.3016727957E-05
   0.2146480987E+00   0.1790996318E-01   0.8288166511E-04  -0.1057213523E-06   0.0000000000E+00   0.0000000000E+00   0.1079770896E-01   0.2515109361E-02   0.0000000000E+00  -0.1400948479E-02
   0.1989741763E+00   0.8915700326E-02   0.8170233440E-04  -0.6954432352E-07   0.0000000000E+00   0.0000000000E+00   0.9176163945E-02   0.1895451116E-02   0.0000000000E+00  -0.8437035854E-03
   0.2094485789E+00   0.8954981166E-02   0.8264488187E-04  -0.5326370578E-07   0.0000000000E+00   0.0000000000E+00   0.1007146789E-01   0.2365080571E-02   0.0000000000E+00  -0.7455293933E-03
   0.2041736196E+00   0.1787066857E-01   0.8186164678E-04  -0.1357346971E-06   0.0000000000E+00   0.0000000000E+00   0.1005932955E-01   0.2078814162E-02   0.0000000000E+00  -0.1590638724E-02
   0.1321676230E+00   0.4107688062E-01   0.7316504833E-04  -0.2934877938E-05   0.0000000000E+00   0.0000000000E+00   0.6209503458E-02  -0.5785701382E-02   0.0000000000E+00  -0.5612247544E-02
   0.1251542014E+00   0.5990079071E-01   0.6725342818E-04  -0.5379092626E-05   0.0000000000E+00   0.0000000000E+00   0.1181885261E-01  -0.6280048999E-02   0.0000000000E+00  -0.6966915573E-02
   0.1130690051E+00   0.3922574492E-01   0.7224811750E-04  -0.5309582513E-05   0.0000000000E+00   0.0000000000E+00   0.3061602005E-02  -0.9260923053E-02   0.0000000000E+00  -0.3623569319E-02
   0.1286611571E+00   0.5048892413E-01   0.7045407154E-04  -0.4070365614E-05   0.0000000000E+00   0.0000000000E+00   0.8812892016E-02  -0.6232964613E-02   0.0000000000E+00  -0.6271323621E-02
   0.1191115903E+00   0.4956333795E-01   0.6973731688E-04  -0.5274152879E-05   0.0000000000E+00   0.0000000000E+00   0.7614745756E-02  -0.7177294431E-02   0.0000000000E+00  -0.5349778057E-02
   0.1226182619E+00   0.4015154566E-01   0.7265491985E-04  -0.3887439072E-05   0.0000000000E+00   0.0000000000E+00   0.5135590372E-02  -0.7658148937E-02   0.0000000000E+00  -0.4745930105E-02
   0.1728042833E+00   0.1763007903E-01   0.7930629297E-04  -0.3117679855E-06   0.0000000000E+00   0.0000000000E+00   0.6789395231E-02   0.1116333648E-03   0.0000000000E+00  -0.2225441500E-02
   0.1834139324E+00   0.0000000000E+00   0.8059539520E-04   0.0000000000E+00   0.0000000000E+00   0.0000000000E+00   0.7346464063E-02   0.1127105615E-02   0.0000000000E+00  -0.1265573945E-04
   0.1781092438E+00   0.8815070705E-02   0.8009376276E-04  -0.1247050533E-06   0.0000000000E+00   0.0000000000E+00   0.6957894377E-02   0.5902522369E-03   0.0000000000E+00  -0.1041932110E-02
   0.1885566672E+00   0.8915676935E-02   0.8085021185E-04  -0.9293495741E-07   0.0000000000E+00   0.0000000000E+00   0.8093804590E-02   0.1316650374E-02   0.0000000000E+00  -0.9546693484E-03
   0.1832516957E+00   0.1773073387E-01   0.8006568896E-04  -0.2323334354E-06   0.0000000000E+00   0.0000000000E+00   0.8091768739E-02   0.8839019932E-03   0.0000000000E+00  -0.2002556949E-02
   0.9245959975E-01   0.3825717601E-01   0.7164785215E-04  -0.1116658727E-04   0.0000000000E+00   0.0000000000E+00  -0.2070594939E-02  -0.1279260665E-01   0.0000000000E+00   0.4446125510E-02
   0.1074755551E+00   0.4802469211E-01   0.6919206380E-04  -0.7397987473E-05   0.0000000000E+00   0.0000000000E+00   0.4889583898E-02  -0.9056952031E-02   0.0000000000E+00  -0.3919697573E-02
   0.9717064235E-01   0.4754038987E-01   0.6868574776E-04  -0.1034053221E-04   0.0000000000E+00   0.0000000000E+00   0.2862761984E-02  -0.8766467323E-02   0.0000000000E+00  -0.5713658694E-03
   0.1027641991E+00   0.3874207060E-01   0.7184811355E-04  -0.7627904457E-05   0.0000000000E+00   0.0000000000E+00   0.1258173799E-02  -0.1075235475E-01   0.0000000000E+00  -0.2235003240E-03
   0.3306497262E+00   0.2499891707E+00   0.9416817111E-04  -0.1082928881E-04   0.0000000000E+00   0.0000000000E+00   0.3006264321E-01  -0.1329652235E-04   0.0000000000E+00  -0.1005048637E-04
   0.3500999940E+00   0.2307601800E+00   0.1000000000E-03  -0.9052014470E-05   0.0000000000E+00   0.0000000000E+00   0.2902878688E-01   0.6830837798E-04   0.0000000000E+00  -0.7681302666E-05
   0.3500999940E+00   0.2499892506E+00   0.1000000000E-03  -0.1074938552E-04   0.0000000000E+00   0.0000000000E+00   0.2995096345E-01   0.4141693129E-05   0.0000000000E+00   0.2570886708E-05
   0.3403749204E+00   0.2403746977E+00   0.9712935285E-04  -0.9911308274E-05   0.0000000000E+00   0.0000000000E+00   0.2955441110E-01   0.2534273082E-04   0.0000000000E+00  -0.2495912861E-04
   0.3500999940E+00   0.2403747160E+00   0.1000000000E-03  -0.9893028741E-05   0.0000000000E+00   0.0000000000E+00   0.2952479536E-01   0.2608594133E-04   0.0000000000E+00  -0.2723931658E-05
   0.3403748770E+00   0.2499892306E+00   0.9708601937E-04  -0.1076937579E-04   0.0000000000E+00   0.0000000000E+00   0.2997875545E-01  -0.5796732943E-05   0.0000000000E+00  -0.1507645225E-04
   0.3241552991E+00   0.2323496244E+00   0.9244510249E-04  -0.9322559087E-05   0.0000000000E+00   0.0000000000E+00   0.2922255421E-01   0.5431858549E-04   0.0000000000E+00  -0.1811082828E-03
   0.3111994257E+00   0.2499889303E+00   0.8830371631E-04  -0.1106974651E-04   0.0000000000E+00   0.0000000000E+00   0.3030836867E-01  -0.1075147221E-04   0.0000000000E+00  -0.9489178896E-05
   0.3274024758E+00   0.2411693991E+00   0.9328481278E-04  -0.1006691552E-04   0.0000000000E+00   0.0000000000E+00   0.2966332084E-01   0.2162643995E-04   0.0000000000E+00  -0.8707166179E-04
   0.3209245667E+00   0.2499890725E+00   0.9124173317E-04  -0.1092749739E-04   0.0000000000E+00   0.0000000000E+00   0.3014103031E-01  -0.1831273216E-04   0.0000000000E+00  -0.1269508597E-04
   0.3176773844E+00   0.2411692889E+00   0.9039637433E-04  -0.1017710278E-04   0.0000000000E+00   0.0000000000E+00   0.2978385986E-01   0.2486459255E-04   0.0000000000E+00  -0.1044147992E-03
   0.2834014526E+00   0.1997175373E+00   0.8194956768E-04  -0.7360651932E-05   0.0000000000E+00   0.0000000000E+00   0.2749507169E-01   0.2455920241E-03   0.0000000000E+00  -0.9136332370E-03
   0.2730370730E+00   0.2161557636E+00   0.7816797165E-04  -0.9048359474E-05   0.0000000000E+00   0.0000000000E+00   0.2886306396E-01   0.8050811945E-04   0.0000000000E+00  -0.7364614459E-03
   0.2634099507E+00   0.1994767743E+00   0.7645170029E-04  -0.8005673337E-05   0.0000000000E+00   0.0000000000E+00   0.2778052176E-01   0.9971931738E-04   0.0000000000E+00  -0.1057641006E-02
   0.2782192872E+00   0.2079366722E+00   0.8008316336E-04  -0.8182814052E-05   0.0000000000E+00   0.0000000000E+00   0.2818200696E-01   0.1528865175E-03   0.0000000000E+00  -0.8273499799E-03
   0.2682234874E+00   0.2078162814E+00   0.7727035662E-04  -0.8514626822E-05   0.0000000000E+00   0.0000000000E+00   0.2833112636E-01   0.1071225575E-03   0.0000000000E+00  -0.8907503778E-03
   0.2734057245E+00   0.1995971856E+00   0.7920845045E-04  -0.7653439489E-05   0.0000000000E+00   0.0000000000E+00   0.2762686954E-01   0.1692358548E-03   0.0000000000E+00  -0.9920382039E-03
   0.3156803238E+00   0.1923742477E+00   0.9092581009E-04  -0.6165275736E-05   0.0000000000E+00   0.0000000000E+00   0.2661637527E-01   0.5007665613E-03   0.0000000000E+00  -0.5782980849E-03
   0.3332063450E+00   0.1825918568E+00   0.9568499948E-04  -0.5303158368E-05   0.0000000000E+00   0.0000000000E+00   0.2578832333E-01   0.7233049911E-03   0.0000000000E+00  -0.3233796457E-03
   0.3332271686E+00   0.2016183845E+00   0.9543763742E-04  -0.6709502097E-05   0.0000000000E+00   0.0000000000E+00   0.2719364075E-01   0.3997946128E-03   0.0000000000E+00  -0.2576842977E-03
   0.3244433702E+00   0.1874830802E+00   0.9334122367E-04  -0.5713785427E-05   0.0000000000E+00   0.0000000000E+00   0.2620103072E-01   0.6174077243E-03   0.0000000000E+00  -0.4534596824E-03
   0.3332167395E+00   0.1921051463E+00   0.9555848523E-04  -0.5988672207E-05   0.0000000000E+00   0.0000000000E+00   0.2648795838E-01   0.5517452715E-03   0.0000000000E+00  -0.2912010544E-03
   0.3244537007E+00   0.1969963333E+00   0.9315167752E-04  -0.6420662230E-05   0.0000000000E+00   0.0000000000E+00   0.2690741060E-01   0.4559754467E-03   0.0000000000E+00  -0.4151756875E-03
   0.3333051691E+00   0.1634078190E+00   0.9598210722E-04  -0.4037046750E-05   0.0000000000E+00   0.0000000000E+00   0.2428289708E-01   0.1117994821E-02   0.0000000000E+00  -0.3765310868E-03
   0.3500999940E+00   0.1730723165E+00   0.1000000000E-03  -0.4611494815E-05   0.0000000000E+00   0.0000000000E+00   0.2502557710E-01   0.9335906231E-03   0.0000000000E+00  -0.1130938048E-05
   0.3332557561E+00   0.1729998582E+00   0.9583214574E-04  -0.4649841763E-05   0.0000000000E+00   0.0000000000E+00   0.2503206350E-01   0.9095115058E-03   0.0000000000E+00  -0.3505757102E-03
   0.3417025468E+00   0.1682400827E+00   0.9795678736E-04  -0.4309323103E-05   0.0000000000E+00   0.0000000000E+00   0.2465726629E-01   0.1031760793E-02   0.0000000000E+00  -0.1844085654E-03
   0.3416532034E+00   0.1778321035E+00   0.9787639324E-04  -0.4940519972E-05   0.0000000000E+00   0.0000000000E+00   0.2540793904E-01   0.8337583050E-03   0.0000000000E+00  -0.1644867181E-03
   0.3500999940E+00   0.1538427283E+00   0.1000000000E-03  -0.3431725691E-05   0.0000000000E+00   0.0000000000E+00   0.2349317112E-01   0.1365957307E-02   0.0000000000E+00  -0.1223140404E-05
   0.3417026165E+00   0.1586252814E+00   0.9802653965E-04  -0.3718553620E-05   0.0000000000E+00   0.0000000000E+00   0.2388913371E-01   0.1247506214E-02   0.0000000000E+00  -0.1913548590E-03
   0.3500999940E+00   0.1634575358E+00   0.1000000000E-03  -0.4000197667E-05   0.0000000000E+00   0.0000000000E+00   0.2425608697E-01   0.1138645233E-02   0.0000000000E+00  -0.5377925951E-06
   0.2677318534E+00   0.3629392875E-01   0.8846136649E-04  -0.1292514477E-06   0.0000000000E+00   0.0000000000E+00   0.1436267046E-01   0.3552052408E-02   0.0000000000E+00  -0.1318860875E-02
   0.2621642982E+00   0.2715710954E-01   0.8803921269E-04  -0.7796430063E-07   0.0000000000E+00   0.0000000000E+00   0.1375870053E-01   0.3577983408E-02   0.0000000000E+00  -0.1090784573E-02
   0.2671435060E+00   0.1799100120E-01   0.8888896095E-04  -0.3500478786E-07   0.0000000000E+00   0.0000000000E+00   0.1369949030E-01   0.3827984755E-02   0.0000000000E+00  -0.7005717749E-03
   0.2727111482E+00   0.2712783953E-01   0.8939721453E-04  -0.6526832799E-07   0.0000000000E+00   0.0000000000E+00   0.1416019538E-01   0.3760383822E-02   0.0000000000E+00  -0.9339308238E-03
   0.3164919000E+00   0.1346249255E+00   0.9280297873E-04  -0.2550514834E-05   0.0000000000E+00   0.0000000000E+00   0.2199070629E-01   0.1709800594E-02   0.0000000000E+00  -0.8686571961E-03
   0.3164705300E+00   0.1154545625E+00   0.9336696440E-04  -0.1705534320E-05   0.0000000000E+00   0.0000000000E+00   0.2042534527E-01   0.2213357492E-02   0.0000000000E+00  -0.9132981146E-03
   0.3333383477E+00   0.1250164246E+00   0.9655668865E-04  -0.2023443280E-05   0.0000000000E+00   0.0000000000E+00   0.2117375896E-01   0.2067086942E-02   0.0000000000E+00  -0.4491582233E-03
   0.3164812165E+00   0.1250397673E+00   0.9308648983E-04  -0.2104718324E-05   0.0000000000E+00   0.0000000000E+00   0.2120434495E-01   0.1949236832E-02   0.0000000000E+00  -0.8936395885E-03
   0.3249044198E+00   0.1202355032E+00   0.9492782813E-04  -0.1854796616E-05   0.0000000000E+00   0.0000000000E+00   0.2080714430E-01   0.2147716456E-02   0.0000000000E+00  -0.6763421592E-03
   0.3249151765E+00   0.1298206983E+00   0.9471749821E-04  -0.2270709047E-05   0.0000000000E+00   0.0000000000E+00   0.2157982304E-01   0.1893321855E-02   0.0000000000E+00  -0.6615279767E-03
   0.3500999940E+00   0.9615286781E-01   0.1000000000E-03  -0.9800850353E-06   0.0000000000E+00   0.0000000000E+00   0.1894814354E-01   0.2886353571E-02   0.0000000000E+00  -0.1958509385E-05
   0.3332965067E+00   0.1057899858E+00   0.9682674815E-04  -0.1292234274E-05   0.0000000000E+00   0.0000000000E+00   0.1966188812E-01   0.2588370235E-02   0.0000000000E+00  -0.4585581257E-03
   0.3416408651E+00   0.9135480475E-01   0.9850213167E-04  -0.8543483807E-06   0.0000000000E+00   0.0000000000E+00   0.1860527988E-01   0.2999995540E-02   0.0000000000E+00  -0.2185904074E-03
   0.3416982692E+00   0.1009714378E+00   0.9844724330E-04  -0.1125216161E-05   0.0000000000E+00   0.0000000000E+00   0.1930428596E-01   0.2740792986E-02   0.0000000000E+00  -0.2311411876E-03
   0.3332391707E+00   0.9617337804E-01   0.9694968961E-04  -0.9961645540E-06   0.0000000000E+00   0.0000000000E+00   0.1895615115E-01   0.2839810510E-02   0.0000000000E+00  -0.4523837703E-03
   0.3500999940E+00   0.7692255231E-01   0.1000000000E-03  -0.5274858561E-06   0.0000000000E+00   0.0000000000E+00   0.1763204864E-01   0.3387002020E-02   0.0000000000E+00  -0.2172148803E-05
   0.3414627683E+00   0.7206579091E-01   0.9859329525E-04  -0.4416892091E-06   0.0000000000E+00   0.0000000000E+00   0.1732431586E-01   0.3488966175E-02   0.0000000000E+00  -0.1983270279E-03
   0.3416409272E+00   0.8173964747E-01   0.9856422281E-04  -0.6275306488E-06   0.0000000000E+00   0.0000000000E+00   0.1794167566E-01   0.3247798657E-02   0.0000000000E+00  -0.2220459745E-03
   0.3319527582E+00   0.4723412361E-01   0.9731219647E-04  -0.1396894696E-06   0.0000000000E+00   0.0000000000E+00   0.1597010564E-01   0.4002744652E-02   0.0000000000E+00  -0.3271288622E-03
   0.3500999940E+00   0.5769207200E-01   0.1000000000E-03  -0.2359975929E-06   0.0000000000E+00   0.0000000000E+00   0.1651947310E-01   0.3830099290E-02   0.0000000000E+00  -0.2727765297E-05
   0.3410263508E+00   0.5246310331E-01   0.9863079952E-04  -0.1822940477E-06   0.0000000000E+00   0.0000000000E+00   0.1624653120E-01   0.3916100868E-02   0.0000000000E+00  -0.1644724384E-03
   0.3414628221E+00   0.6245055251E-01   0.9864711898E-04  -0.2959925228E-06   0.0000000000E+00   0.0000000000E+00   0.1676255174E-01   0.3707096174E-02   0.0000000000E+00  -0.1994798433E-03
   0.3323891832E+00   0.5722159360E-01   0.9728220542E-04  -0.2363037290E-06   0.0000000000E+00   0.0000000000E+00   0.1648987951E-01   0.3794901441E-02   0.0000000000E+00  -0.3663137942E-03
   0.3410263937E+00   0.4284779710E-01   0.9867372981E-04  -0.1044991994E-06   0.0000000000E+00   0.0000000000E+00   0.1582262471E-01   0.4086918173E-02   0.0000000000E+00  -0.1631096950E-03
   0.3317397251E+00   0.3670291218E-01   0.9736608823E-04  -0.7092158537E-07   0.0000000000E+00   0.0000000000E+00   0.1559672650E-01   0.4160178332E-02   0.0000000000E+00  -0.2649523232E-03
   0.0000000000E+00   0.2499561373E+00   0.0000000000E+00  -0.4386272864E-04   0.0000000000E+00   0.0000000000E+00   0.1732987227E-01  -0.5259249860E-05   0.0000000000E+00  -0.2729140202E-04
   0.9723918694E-02   0.2499562758E+00   0.1696124205E-05  -0.4372415114E-04   0.0000000000E+00   0.0000000000E+00   0.1752386064E-01  -0.5005243862E-05   0.0000000000E+00   0.1133988534E-03
   0.0000000000E+00   0.2405816465E+00   0.0000000000E+00  -0.4334753236E-04   0.0000000000E+00   0.0000000000E+00   0.1989079237E-01   0.1507795802E-03   0.0000000000E+00   0.7629802319E-05
   0.9724160877E-02   0.2405817945E+00   0.1938306896E-05  -0.4319949803E-04   0.0000000000E+00   0.0000000000E+00   0.2013825977E-01   0.1341475566E-03   0.0000000000E+00   0.1583418471E-03
   0.3889593995E-01   0.2499583361E+00   0.7049646554E-05  -0.4166392637E-04   0.0000000000E+00   0.0000000000E+00   0.1966673280E-01  -0.3061163964E-04   0.0000000000E+00   0.6548830050E-04
   0.4034682077E-01   0.2337921562E+00   0.8870766410E-05  -0.4047177866E-04   0.0000000000E+00   0.0000000000E+00   0.2306987120E-01   0.1522391477E-03   0.0000000000E+00   0.1461394184E-02
   0.4371252161E-01   0.2415027745E+00   0.8935705616E-05  -0.4057854774E-04   0.0000000000E+00   0.0000000000E+00   0.2182976689E-01   0.1082060450E-03   0.0000000000E+00   0.8631504253E-03
   0.3553036260E-01   0.2422477232E+00   0.7111895328E-05  -0.4155178637E-04   0.0000000000E+00   0.0000000000E+00   0.2111323732E-01   0.6124651066E-04   0.0000000000E+00   0.6601595563E-03
   0.5553019609E-01   0.1231089717E+00   0.2468198533E-04  -0.2926934112E-04   0.0000000000E+00   0.0000000000E+00   0.3971304872E-01   0.2057752854E-02   0.0000000000E+00  -0.3598827372E-03
   0.4630343099E-01   0.1177557910E+00   0.2245459016E-04  -0.3097398625E-04   0.0000000000E+00   0.0000000000E+00   0.4279032653E-01   0.3675250160E-02   0.0000000000E+00  -0.2694744277E-02
   0.4634699489E-01   0.1070883060E+00   0.2621379123E-04  -0.3003199912E-04   0.0000000000E+00   0.0000000000E+00   0.4537657861E-01   0.5581897158E-02   0.0000000000E+00  -0.6736754456E-02
   0.5557327030E-01   0.1124415854E+00   0.2795519858E-04  -0.2822161821E-04   0.0000000000E+00   0.0000000000E+00   0.3962653547E-01   0.2397193302E-02   0.0000000000E+00  -0.3624419943E-02
   0.6783379922E-01   0.2329342926E+00   0.1559711600E-04  -0.3642238501E-04   0.0000000000E+00   0.0000000000E+00   0.2540814484E-01   0.3899462610E-04   0.0000000000E+00   0.1986503941E-02
   0.5834442163E-01   0.2499608598E+00   0.1108803270E-04  -0.3914020307E-04   0.0000000000E+00   0.0000000000E+00   0.2203163285E-01  -0.1958805072E-04   0.0000000000E+00   0.9361216071E-04
   0.6308913206E-01   0.2414475323E+00   0.1336605597E-04  -0.3782470592E-04   0.0000000000E+00   0.0000000000E+00   0.2378685127E-01   0.4806646622E-04   0.0000000000E+00   0.1021445674E-02
   0.5343691798E-01   0.2415040665E+00   0.1110677916E-04  -0.3928653413E-04   0.0000000000E+00   0.0000000000E+00   0.2292451400E-01   0.4272150867E-04   0.0000000000E+00   0.9277614815E-03
   0.5818142498E-01   0.2329907267E+00   0.1318137821E-04  -0.3798329940E-04   0.0000000000E+00   0.0000000000E+00   0.2455761070E-01   0.8343106967E-04   0.0000000000E+00   0.1884601158E-02
   0.7779341249E-01   0.2499640045E+00   0.1563189166E-04  -0.3599554271E-04   0.0000000000E+00   0.0000000000E+00   0.2474264391E-01   0.1936549225E-05   0.0000000000E+00   0.9397798878E-04
   0.8259169936E-01   0.2414785564E+00   0.1822586137E-04  -0.3450260176E-04   0.0000000000E+00   0.0000000000E+00   0.2594247752E-01  -0.4442756567E-05   0.0000000000E+00   0.1017251524E-02
   0.7281372942E-01   0.2414491383E+00   0.1573811941E-04  -0.3621868341E-04   0.0000000000E+00   0.0000000000E+00   0.2503404085E-01  -0.1379102947E-04   0.0000000000E+00   0.1035446215E-02
   0.7761180197E-01   0.2329636895E+00   0.1811777370E-04  -0.3472649132E-04   0.0000000000E+00   0.0000000000E+00   0.2625612732E-01  -0.1502551444E-04   0.0000000000E+00   0.1985508033E-02
   0.1264083680E+00   0.2331032464E+00   0.3188799267E-04  -0.2571857825E-04   0.0000000000E+00   0.0000000000E+00   0.2991320792E-01  -0.1824997112E-03   0.0000000000E+00   0.1254351834E-02
   0.1166929315E+00   0.2499710211E+00   0.2626450807E-04  -0.2897894413E-04   0.0000000000E+00   0.0000000000E+00   0.2964824903E-01   0.3155000817E-04   0.0000000000E+00   0.5914595790E-04
   0.1215507188E+00   0.2415371291E+00   0.2914181525E-04  -0.2735285827E-04   0.0000000000E+00   0.0000000000E+00   0.2974221568E-01  -0.6884955579E-04   0.0000000000E+00   0.6822890680E-03
   0.1118145355E+00   0.2415312754E+00   0.2627750282E-04  -0.2912461840E-04   0.0000000000E+00   0.0000000000E+00   0.2906450018E-01  -0.8320400359E-04   0.0000000000E+00   0.8301625690E-03
   0.1166721586E+00   0.2330973992E+00   0.2899760426E-04  -0.2748284362E-04   0.0000000000E+00   0.0000000000E+00   0.2936647896E-01  -0.1322738235E-03   0.0000000000E+00   0.1464583234E-02
   0.1361433223E+00   0.2499744096E+00   0.3221229971E-04  -0.2559038840E-04   0.0000000000E+00   0.0000000000E+00   0.3135559923E-01   0.3526139894E-04   0.0000000000E+00   0.3716842524E-04
   0.1410037271E+00   0.2415352155E+00   0.3507612316E-04  -0.2399149900E-04   0.0000000000E+00   0.0000000000E+00   0.3102721626E-01  -0.7650333525E-04   0.0000000000E+00   0.4523626784E-03
   0.1312758727E+00   0.2415388448E+00   0.3207773534E-04  -0.2563721896E-04   0.0000000000E+00   0.0000000000E+00   0.3054999175E-01  -0.8982246417E-04   0.0000000000E+00   0.6147697492E-03
   0.1361361652E+00   0.2330996697E+00   0.3483019890E-04  -0.2402025614E-04   0.0000000000E+00   0.0000000000E+00   0.3045401545E-01  -0.1454450776E-03   0.0000000000E+00   0.1033600633E-02
   0.1361235511E+00   0.2162084793E+00   0.3714706079E-04  -0.2241970560E-04   0.0000000000E+00   0.0000000000E+00   0.3002740950E-01  -0.6945730367E-03   0.0000000000E+00   0.1586887229E-02
   0.1409938051E+00   0.2246522519E+00   0.3749305966E-04  -0.2240510305E-04   0.0000000000E+00   0.0000000000E+00   0.3037291613E-01  -0.4472507964E-03   0.0000000000E+00   0.1172951678E-02
   0.1312659878E+00   0.2246558590E+00   0.3454576472E-04  -0.2407299477E-04   0.0000000000E+00   0.0000000000E+00   0.2993203191E-01  -0.4420967009E-03   0.0000000000E+00   0.1444670288E-02
   0.1847717390E+00   0.2330842393E+00   0.5000102433E-04  -0.1696469990E-04   0.0000000000E+00   0.0000000000E+00   0.3147941261E-01  -0.1233431794E-03   0.0000000000E+00   0.5067254596E-04
   0.1750448083E+00   0.2499801991E+00   0.4481128249E-04  -0.1980089288E-04   0.0000000000E+00   0.0000000000E+00   0.3299250061E-01   0.2773201461E-04   0.0000000000E+00   0.2625399346E-05
   0.1799083096E+00   0.2415322318E+00   0.4744964598E-04  -0.1836324651E-04   0.0000000000E+00   0.0000000000E+00   0.3218833489E-01  -0.5933946491E-04   0.0000000000E+00   0.4946732802E-04
   0.1701810111E+00   0.2415338413E+00   0.4432105516E-04  -0.1961465816E-04   0.0000000000E+00   0.0000000000E+00   0.3209516138E-01  -0.6744552160E-04   0.0000000000E+00   0.1749748624E-03
   0.1750445036E+00   0.2330858880E+00   0.4693558535E-04  -0.1816202669E-04   0.0000000000E+00   0.0000000000E+00   0.3147395906E-01  -0.1116961890E-03   0.0000000000E+00   0.2165429360E-03
   0.2042262496E+00   0.2330895130E+00   0.5612657179E-04  -0.1489503433E-04   0.0000000000E+00   0.0000000000E+00   0.3138318316E-01  -0.8387718731E-04   0.0000000000E+00  -0.2011376491E-03
   0.1944956938E+00   0.2499824834E+00   0.5124577185E-04  -0.1751657807E-04   0.0000000000E+00   0.0000000000E+00   0.3306932805E-01   0.2048583781E-04   0.0000000000E+00  -0.7494482750E-05
   0.1993610122E+00   0.2415360202E+00   0.5371922134E-04  -0.1618380794E-04   0.0000000000E+00   0.0000000000E+00   0.3218848272E-01  -0.4353063478E-04   0.0000000000E+00  -0.8738688560E-04
   0.1896336779E+00   0.2415333744E+00   0.5058494584E-04  -0.1722055244E-04   0.0000000000E+00   0.0000000000E+00   0.3223708061E-01  -0.4870668126E-04   0.0000000000E+00   0.4558948772E-05
   0.1944990048E+00   0.2330869218E+00   0.5306678679E-04  -0.1587621340E-04   0.0000000000E+00   0.0000000000E+00   0.3149154105E-01  -0.8158693380E-04   0.0000000000E+00  -0.8207629837E-04
   0.2236796887E+00   0.2331030042E+00   0.6220971045E-04  -0.1323481591E-04   0.0000000000E+00   0.0000000000E+00   0.3110181085E-01  -0.4687217120E-04   0.0000000000E+00  -0.3596291661E-03
   0.2139465430E+00   0.2499843573E+00   0.5765904208E-04  -0.1564270311E-04   0.0000000000E+00   0.0000000000E+00   0.3281188241E-01   0.1298922081E-04   0.0000000000E+00  -0.1320245421E-04
   0.2188131474E+00   0.2415437037E+00   0.5995836130E-04  -0.1441628840E-04   0.0000000000E+00   0.0000000000E+00   0.3193046849E-01  -0.2745757768E-04   0.0000000000E+00  -0.1755799681E-03
   0.2090863417E+00   0.2415369535E+00   0.5684565028E-04  -0.1525051596E-04   0.0000000000E+00   0.0000000000E+00   0.3207719708E-01  -0.3008643375E-04   0.0000000000E+00  -0.1177517096E-03
   0.2139529766E+00   0.2330963079E+00   0.5917558036E-04  -0.1401611052E-04   0.0000000000E+00   0.0000000000E+00   0.3128186890E-01  -0.5130094419E-04   0.0000000000E+00  -0.2870192540E-03
   0.2431472351E+00   0.2331153129E+00   0.6822809089E-04  -0.1193809050E-04   0.0000000000E+00   0.0000000000E+00   0.3071332505E-01  -0.1546894358E-04   0.0000000000E+00  -0.4344589629E-03
   0.2333973325E+00   0.2499858522E+00   0.6399848864E-04  -0.1414784247E-04   0.0000000000E+00   0.0000000000E+00   0.3234572783E-01   0.6124966041E-05   0.0000000000E+00  -0.1544482710E-04
   0.2382723084E+00   0.2415505967E+00   0.6613042450E-04  -0.1302134892E-04   0.0000000000E+00   0.0000000000E+00   0.3151433989E-01  -0.1300582291E-04   0.0000000000E+00  -0.2196383774E-03
   0.2285384607E+00   0.2415444449E+00   0.6305372712E-04  -0.1367506398E-04   0.0000000000E+00   0.0000000000E+00   0.3171752880E-01  -0.1366540667E-04   0.0000000000E+00  -0.1923693031E-03
   0.2334134789E+00   0.2331092092E+00   0.6522887028E-04  -0.1254383489E-04   0.0000000000E+00   0.0000000000E+00   0.3092729554E-01  -0.2440878715E-04   0.0000000000E+00  -0.4028385525E-03
   0.2627777553E+00   0.2330526664E+00   0.7421729943E-04  -0.1094161574E-04   0.0000000000E+00   0.0000000000E+00   0.3027897315E-01   0.9667977640E-05   0.0000000000E+00  -0.4416143379E-03
   0.2528480198E+00   0.2499870117E+00   0.7023481993E-04  -0.1298825130E-04   0.0000000000E+00   0.0000000000E+00   0.3178198196E-01   0.2514222657E-06   0.0000000000E+00  -0.1526956001E-04
   0.2578129153E+00   0.2415198594E+00   0.7223934237E-04  -0.1194456678E-04   0.0000000000E+00   0.0000000000E+00   0.3102519891E-01  -0.8708513903E-06   0.0000000000E+00  -0.2277902483E-03
   0.2479975781E+00   0.2415511690E+00   0.6918205093E-04  -0.1244896986E-04   0.0000000000E+00   0.0000000000E+00   0.3125223743E-01  -0.3363331844E-06   0.0000000000E+00  -0.2249509744E-03
   0.2529625059E+00   0.2330840339E+00   0.7123390503E-04  -0.1140314663E-04   0.0000000000E+00   0.0000000000E+00   0.3049889009E-01  -0.2502273871E-05   0.0000000000E+00  -0.4427824130E-03
   0.2826568794E+00   0.2328546330E+00   0.8019942676E-04  -0.1019404027E-04   0.0000000000E+00   0.0000000000E+00   0.2985335386E-01   0.2953545132E-04   0.0000000000E+00  -0.3960263947E-03
   0.2722985795E+00   0.2499878831E+00   0.7635849650E-04  -0.1211691208E-04   0.0000000000E+00   0.0000000000E+00   0.3121157771E-01  -0.4598003425E-05   0.0000000000E+00  -0.1381199030E-04
   0.2774777425E+00   0.2414212768E+00   0.7829148909E-04  -0.1113623745E-04   0.0000000000E+00   0.0000000000E+00   0.3053527622E-01   0.9183137413E-05   0.0000000000E+00  -0.2080654335E-03
   0.2675381214E+00   0.2415202870E+00   0.7524241940E-04  -0.1151695311E-04   0.0000000000E+00   0.0000000000E+00   0.3075745395E-01   0.9722357267E-05   0.0000000000E+00  -0.2241136276E-03
   0.2727173286E+00   0.2329536815E+00   0.7721962801E-04  -0.1053646667E-04   0.0000000000E+00   0.0000000000E+00   0.3005502745E-01   0.1484527330E-04   0.0000000000E+00  -0.4225477575E-03
   0.3030435836E+00   0.2323374182E+00   0.8625755327E-04  -0.9637814924E-05   0.0000000000E+00   0.0000000000E+00   0.2947213596E-01   0.4563683138E-04   0.0000000000E+00  -0.3110720494E-03
   0.2917490326E+00   0.2499885102E+00   0.8237555165E-04  -0.1148977107E-04   0.0000000000E+00   0.0000000000E+00   0.3070369063E-01  -0.8738402531E-05   0.0000000000E+00  -0.1207168344E-04
   0.2973963230E+00   0.2411629913E+00   0.8433203142E-04  -0.1054474260E-04   0.0000000000E+00   0.0000000000E+00   0.3009748418E-01   0.1838676217E-04   0.0000000000E+00  -0.1678557567E-03
   0.2872029018E+00   0.2414215819E+00   0.8124777936E-04  -0.1083105786E-04   0.0000000000E+00   0.0000000000E+00   0.3029628394E-01   0.1661082541E-04   0.0000000000E+00  -0.1976577460E-03
   0.2928502274E+00   0.2325960456E+00   0.8323935349E-04  -0.9888415212E-05   0.0000000000E+00   0.0000000000E+00   0.2963957215E-01   0.2936052331E-04   0.0000000000E+00  -0.3566545112E-03
   0.3071214719E+00   0.2411631922E+00   0.8724794342E-04  -0.1034381112E-04   0.0000000000E+00   0.0000000000E+00   0.2990993783E-01   0.2179053681E-04   0.0000000000E+00  -0.1517403122E-03
   0.3135994480E+00   0.2323435467E+00   0.8935796490E-04  -0.9455301815E-05   0.0000000000E+00   0.0000000000E+00   0.2932206464E-01   0.3889964641E-04   0.0000000000E+00  -0.2484731799E-03
   0.6348942263E-01   0.7727667152E-01   0.5009073418E-04  -0.2437617563E-04   0.0000000000E+00   0.0000000000E+00   0.1940556517E-01   0.1150435780E-01   0.0000000000E+00  -0.1454195496E-01
   0.7736158948E-01   0.6341999288E-01   0.6054177896E-04  -0.1933901623E-04   0.0000000000E+00   0.0000000000E+00   0.4419493689E-02   0.4399188400E-02   0.0000000000E+00  -0.4616408110E-02
   0.8826069024E-01   0.4712573925E-01   0.6856263840E-04  -0.1393514769E-04   0.0000000000E+00   0.0000000000E+00  -0.2022461465E-02  -0.8085486635E-02   0.0000000000E+00   0.3259120720E-02
   0.1653173638E+00   0.1646820899E+00   0.5281676440E-04  -0.1251712547E-04   0.0000000000E+00   0.0000000000E+00   0.2825610922E-01  -0.2572407009E-02   0.0000000000E+00  -0.7062968335E-03
   0.1554139048E+00   0.1822313117E+00   0.4742480703E-04  -0.1580526411E-04   0.0000000000E+00   0.0000000000E+00   0.2934629957E-01  -0.2062742893E-02   0.0000000000E+00   0.4612343782E-03
   0.1452842386E+00   0.1648072433E+00   0.4686758041E-04  -0.1536466365E-04   0.0000000000E+00   0.0000000000E+00   0.2933620917E-01  -0.3073022879E-02   0.0000000000E+00   0.1798297060E-03
   0.1603656235E+00   0.1734567145E+00   0.5010946562E-04  -0.1414047147E-04   0.0000000000E+00   0.0000000000E+00   0.2880853251E-01  -0.2343064346E-02   0.0000000000E+00  -0.1253745723E-03
   0.1503490483E+00   0.1735192745E+00   0.4711532751E-04  -0.1559550531E-04   0.0000000000E+00   0.0000000000E+00   0.2936355969E-01  -0.2529373011E-02   0.0000000000E+00   0.3372641063E-03
   0.1553008401E+00   0.1647447383E+00   0.4987307076E-04  -0.1386967953E-04   0.0000000000E+00   0.0000000000E+00   0.2874207212E-01  -0.2838631418E-02   0.0000000000E+00  -0.2819736250E-03
   0.2250842650E+00   0.0000000000E+00   0.8427104197E-04   0.0000000000E+00   0.0000000000E+00   0.0000000000E+00   0.1116092760E-01   0.3013106002E-02   0.0000000000E+00  -0.5925665277E-06
   0.2146665689E+00   0.0000000000E+00   0.8323190857E-04   0.0000000000E+00   0.0000000000E+00   0.0000000000E+00   0.1046781050E-01   0.2676512831E-02   0.0000000000E+00  -0.4237668623E-05
   0.2198662663E+00   0.8954993474E-02   0.8366030187E-04  -0.4095621874E-07   0.0000000000E+00   0.0000000000E+00   0.1091646408E-01   0.2753480040E-02   0.0000000000E+00  -0.6608904229E-03
   0.2303274326E+00   0.8969919387E-02   0.8474861239E-04  -0.3203254686E-07   0.0000000000E+00   0.0000000000E+00   0.1160948166E-01   0.3074115823E-02   0.0000000000E+00  -0.5734233998E-03
   0.2355020424E+00   0.0000000000E+00   0.8537641284E-04   0.0000000000E+00   0.0000000000E+00   0.0000000000E+00   0.1191320359E-01   0.3307005124E-02   0.0000000000E+00  -0.3246613089E-05
   0.9576800630E-01   0.2902009468E-01   0.7397099557E-04  -0.8373118130E-05   0.0000000000E+00   0.0000000000E+00  -0.2760497765E-02  -0.2098813999E-01   0.0000000000E+00   0.5759795342E-02
   0.1056119759E+00   0.2936440887E-01   0.7433785015E-04  -0.5634530888E-05   0.0000000000E+00   0.0000000000E+00   0.6492513565E-03  -0.1435974808E-01   0.0000000000E+00   0.4175864815E-04
   0.1614993429E+00   0.7205111193E-01   0.6969886719E-04  -0.3169873530E-05   0.0000000000E+00   0.0000000000E+00   0.1576946259E-01  -0.3079986536E-02   0.0000000000E+00  -0.6179982205E-02
   0.1831181188E+00   0.7144737652E-01   0.7334282278E-04  -0.2119375308E-05   0.0000000000E+00   0.0000000000E+00   0.1562750067E-01  -0.1243632393E-02   0.0000000000E+00  -0.5251129536E-02
   0.1726196783E+00   0.9033899127E-01   0.6792729353E-04  -0.3999834427E-05   0.0000000000E+00   0.0000000000E+00   0.1926158911E-01  -0.2773210305E-02   0.0000000000E+00  -0.5329505764E-02
   0.1723087591E+00   0.7174931125E-01   0.7154208393E-04  -0.2581353691E-05   0.0000000000E+00   0.0000000000E+00   0.1564622692E-01  -0.2164267574E-02   0.0000000000E+00  -0.5723594549E-02
   0.1778690255E+00   0.8089327967E-01   0.7075453297E-04  -0.2963829285E-05   0.0000000000E+00   0.0000000000E+00   0.1748017640E-01  -0.2029993339E-02   0.0000000000E+00  -0.5305902771E-02
   0.1670594180E+00   0.8119506124E-01   0.6872095718E-04  -0.3571456280E-05   0.0000000000E+00   0.0000000000E+00   0.1759043380E-01  -0.2895468643E-02   0.0000000000E+00  -0.5728455589E-02
   0.1739327284E-01   0.2040721159E+00   0.4599337105E-05  -0.4059310646E-04   0.0000000000E+00   0.0000000000E+00   0.2719218922E-01   0.2068773850E-02   0.0000000000E+00   0.1410120949E-02
   0.0000000000E+00   0.1937094682E+00   0.0000000000E+00  -0.4052577947E-04   0.0000000000E+00   0.0000000000E+00   0.2869350757E-01   0.3159978349E-02   0.0000000000E+00   0.2462889690E-04
   0.1683788775E-01   0.1844872744E+00   0.4895351658E-05  -0.3949657975E-04   0.0000000000E+00   0.0000000000E+00   0.3025055310E-01   0.3706346184E-02   0.0000000000E+00   0.1589723544E-02
   0.8696692961E-02   0.1988906706E+00   0.2356211199E-05  -0.4068038252E-04   0.0000000000E+00   0.0000000000E+00   0.2794049703E-01   0.2649456328E-02   0.0000000000E+00   0.7234517891E-03
   0.8418887356E-02   0.1890982386E+00   0.2391135985E-05  -0.4014443660E-04   0.0000000000E+00   0.0000000000E+00   0.2949491397E-01   0.3484307576E-02   0.0000000000E+00   0.7631670933E-03
   0.1711558195E-01   0.1942797125E+00   0.4749946437E-05  -0.4002753789E-04   0.0000000000E+00   0.0000000000E+00   0.2870029349E-01   0.2812090963E-02   0.0000000000E+00   0.1504248787E-02
   0.0000000000E+00   0.1749604226E+00   0.0000000000E+00  -0.3957436877E-04   0.0000000000E+00   0.0000000000E+00   0.3183885486E-01   0.4965135558E-02   0.0000000000E+00   0.3511176092E-04
   0.1691227084E-01   0.1652856644E+00   0.5433840441E-05  -0.3851660756E-04   0.0000000000E+00   0.0000000000E+00   0.3371891847E-01   0.5427347887E-02   0.0000000000E+00   0.1653994309E-02
   0.8418997971E-02   0.1797237165E+00   0.2501751495E-05  -0.3966049630E-04   0.0000000000E+00   0.0000000000E+00   0.3104296492E-01   0.4381214576E-02   0.0000000000E+00   0.8192441402E-03
   0.8456059655E-02   0.1701228808E+00   0.2641154873E-05  -0.3920115345E-04   0.0000000000E+00   0.0000000000E+00   0.3282412059E-01   0.5265034604E-02   0.0000000000E+00   0.7778627461E-03
   0.1687505826E-01   0.1748864849E+00   0.5144458649E-05  -0.3899108175E-04   0.0000000000E+00   0.0000000000E+00   0.3197183744E-01   0.4489125513E-02   0.0000000000E+00   0.1623219385E-02
   0.9122131365E-02   0.1309986769E+00   0.3957165492E-05  -0.3739605718E-04   0.0000000000E+00   0.0000000000E+00   0.4512820726E-01   0.8062859931E-02   0.0000000000E+00  -0.4160632762E-03
   0.0000000000E+00   0.1280875291E+00   0.0000000000E+00  -0.3746791547E-04   0.0000000000E+00   0.0000000000E+00   0.4890519079E-01   0.8306725915E-02   0.0000000000E+00  -0.9055589029E-04
   0.2702304889E-01   0.2199350744E+00   0.6543291013E-05  -0.4090359541E-04   0.0000000000E+00   0.0000000000E+00   0.2490771418E-01   0.8525380385E-03   0.0000000000E+00   0.1637481331E-02
   0.1745773464E-01   0.2142832505E+00   0.4362144404E-05  -0.4122347640E-04   0.0000000000E+00   0.0000000000E+00   0.2545950124E-01   0.1332887043E-02   0.0000000000E+00   0.1218056822E-02
   0.2695874559E-01   0.2097239710E+00   0.6940789235E-05  -0.4024098375E-04   0.0000000000E+00   0.0000000000E+00   0.2651730335E-01   0.1502691552E-02   0.0000000000E+00   0.1874039680E-02
   0.8456210155E-02   0.1607483062E+00   0.2791655126E-05  -0.3878483991E-04   0.0000000000E+00   0.0000000000E+00   0.3481176387E-01   0.6166951964E-02   0.0000000000E+00   0.8596581163E-03
   0.1717993639E-01   0.1554515457E+00   0.5878686239E-05  -0.3803328350E-04   0.0000000000E+00   0.0000000000E+00   0.3623993798E-01   0.6158023491E-02   0.0000000000E+00   0.1512227950E-02
   0.3380729417E-01   0.1749523177E+00   0.1034677034E-04  -0.3732330859E-04   0.0000000000E+00   0.0000000000E+00   0.3192745384E-01   0.3445777299E-02   0.0000000000E+00   0.2979272886E-02
   0.3459765821E-01   0.1552055461E+00   0.1186191429E-04  -0.3600290311E-04   0.0000000000E+00   0.0000000000E+00   0.3561383500E-01   0.4583201392E-02   0.0000000000E+00   0.2811304511E-02
   0.2535983413E-01   0.1701188937E+00   0.7940930565E-05  -0.3801732525E-04   0.0000000000E+00   0.0000000000E+00   0.3276551447E-01   0.4451717001E-02   0.0000000000E+00   0.2317718658E-02
   0.2575485658E-01   0.1602454200E+00   0.8540884286E-05  -0.3744499743E-04   0.0000000000E+00   0.0000000000E+00   0.3479578217E-01   0.5089649338E-02   0.0000000000E+00   0.2166045073E-02
   0.3420240362E-01   0.1650789304E+00   0.1103361690E-04  -0.3666464668E-04   0.0000000000E+00   0.0000000000E+00   0.3374755207E-01   0.3986912158E-02   0.0000000000E+00   0.2924801483E-02
   0.0000000000E+00   0.1655858518E+00   0.0000000000E+00  -0.3915417566E-04   0.0000000000E+00   0.0000000000E+00   0.3387471221E-01   0.5797807230E-02   0.0000000000E+00   0.1000163658E-04
   0.3374358904E-01   0.1942154151E+00   0.9420142184E-05  -0.3855089484E-04   0.0000000000E+00   0.0000000000E+00   0.2898092376E-01   0.2203012842E-02   0.0000000000E+00   0.2740757161E-02
   0.2556837068E-01   0.1991436563E+00   0.6948575653E-05  -0.3968868590E-04   0.0000000000E+00   0.0000000000E+00   0.2812761418E-01   0.2185066126E-02   0.0000000000E+00   0.2051879924E-02
   0.2529078207E-01   0.1893512438E+00   0.7201465088E-05  -0.3911721516E-04   0.0000000000E+00   0.0000000000E+00   0.2958340735E-01   0.2975757853E-02   0.0000000000E+00   0.2173468279E-02
   0.0000000000E+00   0.1843349574E+00   0.0000000000E+00  -0.4003064527E-04   0.0000000000E+00   0.0000000000E+00   0.3024818425E-01   0.3971288656E-02   0.0000000000E+00   0.1064977143E-04
   0.8696581379E-02   0.2082651228E+00   0.2244628524E-05  -0.4123417308E-04   0.0000000000E+00   0.0000000000E+00   0.2645025254E-01   0.1873165809E-02   0.0000000000E+00   0.6840643255E-03
   0.0000000000E+00   0.2030839432E+00   0.0000000000E+00  -0.4105676179E-04   0.0000000000E+00   0.0000000000E+00   0.2716032379E-01   0.2305357861E-02   0.0000000000E+00   0.1132470484E-04
   0.5386326227E-01   0.1449787013E+00   0.1977147497E-04  -0.3171071379E-04   0.0000000000E+00   0.0000000000E+00   0.3656350559E-01   0.2127416142E-02   0.0000000000E+00   0.2865888231E-02
   0.5469640013E-01   0.1340438033E+00   0.2189762856E-04  -0.3052666668E-04   0.0000000000E+00   0.0000000000E+00   0.3809508817E-01   0.2008526032E-02   0.0000000000E+00   0.1470204200E-02
   0.4490379726E-01   0.1396511400E+00   0.1727526440E-04  -0.3312004631E-04   0.0000000000E+00   0.0000000000E+00   0.3819465182E-01   0.3567544318E-02   0.0000000000E+00   0.1954367130E-02
   0.4573704478E-01   0.1287161210E+00   0.1951108473E-04  -0.3205704644E-04   0.0000000000E+00   0.0000000000E+00   0.4095473119E-01   0.4011771956E-02   0.0000000000E+00   0.4371193940E-03
   0.9713848674E-01   0.2161014446E+00   0.2560013571E-04  -0.2964639449E-04   0.0000000000E+00   0.0000000000E+00   0.2875651900E-01  -0.4292546262E-03   0.0000000000E+00   0.2861272894E-02
   0.1020373102E+00   0.2245964751E+00   0.2594221835E-04  -0.2946993360E-04   0.0000000000E+00   0.0000000000E+00   0.2866735887E-01  -0.3312469326E-03   0.0000000000E+00   0.2235197014E-02
   0.9226420194E-01   0.2245472799E+00   0.2317543623E-04  -0.3132411929E-04   0.0000000000E+00   0.0000000000E+00   0.2791896537E-01  -0.2137569206E-03   0.0000000000E+00   0.2402897336E-02
   0.1417451662E+00   0.0000000000E+00   0.7850022317E-04   0.0000000000E+00   0.0000000000E+00   0.0000000000E+00   0.1501132489E-02  -0.3952314776E-02   0.0000000000E+00  -0.2042240021E-03
   0.1313282158E+00   0.0000000000E+00   0.7822180430E-04   0.0000000000E+00   0.0000000000E+00   0.0000000000E+00   0.2703744103E-03  -0.7915546444E-02   0.0000000000E+00   0.1043147024E-03
   0.1353618536E+00   0.1073258846E-01   0.7796657889E-04  -0.6732398048E-06   0.0000000000E+00   0.0000000000E+00   0.1128830045E-02  -0.5762500481E-02   0.0000000000E+00  -0.1277242649E-02
   0.1521302500E+00   0.1778483304E-01   0.7807097841E-04  -0.6099635446E-06   0.0000000000E+00   0.0000000000E+00   0.4126318507E-02  -0.2243950841E-02   0.0000000000E+00  -0.2671017112E-02
   0.1625793222E+00   0.0000000000E+00   0.7932820699E-04   0.0000000000E+00   0.0000000000E+00   0.0000000000E+00   0.4663583190E-02  -0.7155522927E-03   0.0000000000E+00  -0.5015013701E-04
   0.1573549878E+00   0.8892474860E-02   0.7889384100E-04  -0.2466397899E-06   0.0000000000E+00   0.0000000000E+00   0.4245620170E-02  -0.1552343937E-02   0.0000000000E+00  -0.1223829667E-02
   0.1676919326E+00   0.8815022437E-02   0.7943959799E-04  -0.1729727414E-06   0.0000000000E+00   0.0000000000E+00   0.5611661256E-02  -0.3374631072E-03   0.0000000000E+00  -0.1186493747E-02
   0.1624672179E+00   0.1770748632E-01   0.7863986859E-04  -0.4314752936E-06   0.0000000000E+00   0.0000000000E+00   0.5676137886E-02  -0.1029422740E-02   0.0000000000E+00  -0.2436886023E-02
   0.2563377770E+00   0.0000000000E+00   0.8775298552E-04   0.0000000000E+00   0.0000000000E+00   0.0000000000E+00   0.1301351940E-01   0.3749902077E-02   0.0000000000E+00  -0.2908899802E-05
   0.2616762641E+00   0.9010143824E-02   0.8834605536E-04  -0.1558576883E-07   0.0000000000E+00   0.0000000000E+00   0.1327860894E-01   0.3767458261E-02   0.0000000000E+00  -0.3820507314E-03
   0.3500999940E+00   0.1153830046E+00   0.1000000000E-03  -0.1611415606E-05   0.0000000000E+00   0.0000000000E+00   0.2040336874E-01   0.2363120265E-02   0.0000000000E+00  -0.1701784371E-05
   0.3416982015E+00   0.1105865053E+00   0.9837946977E-04  -0.1441690771E-05   0.0000000000E+00   0.0000000000E+00   0.2003650481E-01   0.2481147375E-02   0.0000000000E+00  -0.2257823591E-03
   0.3417192061E+00   0.1201997234E+00   0.9831407416E-04  -0.1804551668E-05   0.0000000000E+00   0.0000000000E+00   0.2078872685E-01   0.2219907055E-02   0.0000000000E+00  -0.2272787525E-03
   0.3333174131E+00   0.1154032246E+00   0.9669310523E-04  -0.1634413832E-05   0.0000000000E+00   0.0000000000E+00   0.2041485251E-01   0.2317862348E-02   0.0000000000E+00  -0.4552900720E-03
   0.3500999940E+00   0.1346129620E+00   0.1000000000E-03  -0.2429008462E-05   0.0000000000E+00   0.0000000000E+00   0.2193656632E-01   0.1848253773E-02   0.0000000000E+00  -0.1421896815E-05
   0.3333589285E+00   0.1442270085E+00   0.9627649932E-04  -0.2940528147E-05   0.0000000000E+00   0.0000000000E+00   0.2273122433E-01   0.1570225755E-02   0.0000000000E+00  -0.4193511497E-03
   0.3417191353E+00   0.1298147057E+00   0.9824334355E-04  -0.2214335718E-05   0.0000000000E+00   0.0000000000E+00   0.2155878603E-01   0.1963841539E-02   0.0000000000E+00  -0.2206431524E-03
   0.3417294974E+00   0.1394199997E+00   0.9817442019E-04  -0.2670253158E-05   0.0000000000E+00   0.0000000000E+00   0.2233469281E-01   0.1714682260E-02   0.0000000000E+00  -0.2127892799E-03
   0.3333486378E+00   0.1346217392E+00   0.9641677197E-04  -0.2458849461E-05   0.0000000000E+00   0.0000000000E+00   0.2194911269E-01   0.1807236405E-02   0.0000000000E+00  -0.4352340383E-03
   0.2251092664E+00   0.1792490322E-01   0.8397040390E-04  -0.8358346397E-07   0.0000000000E+00   0.0000000000E+00   0.1160071115E-01   0.2876691830E-02   0.0000000000E+00  -0.1234694851E-02
   0.1938313790E+00   0.0000000000E+00   0.8138497251E-04   0.0000000000E+00   0.0000000000E+00   0.0000000000E+00   0.8598622384E-02   0.1742402829E-02   0.0000000000E+00  -0.5915023580E-05
   0.1799064795E+00   0.2246233019E+00   0.4947852822E-04  -0.1674005427E-04   0.0000000000E+00   0.0000000000E+00   0.3087833891E-01  -0.3175150063E-03   0.0000000000E+00   0.1427853340E-03
   0.1623213877E+00   0.3474171227E-01   0.7676968256E-04  -0.9858267778E-06   0.0000000000E+00   0.0000000000E+00   0.7811013934E-02  -0.1425207237E-02   0.0000000000E+00  -0.4417341494E-02
   0.1830938408E+00   0.3537193802E-01   0.7856877007E-04  -0.5948840154E-06   0.0000000000E+00   0.0000000000E+00   0.9755649263E-02   0.3657431365E-03   0.0000000000E+00  -0.3681414940E-02
   0.1675630054E+00   0.2618595800E-01   0.7821538872E-04  -0.5864029065E-06   0.0000000000E+00   0.0000000000E+00   0.7197195001E-02  -0.7036197417E-03   0.0000000000E+00  -0.3255194314E-02
   0.1779491199E+00   0.2650101565E-01   0.7899489413E-04  -0.4462479552E-06   0.0000000000E+00   0.0000000000E+00   0.8194287778E-02   0.2160416333E-03   0.0000000000E+00  -0.3006160677E-02
   0.1727075832E+00   0.3505685737E-01   0.7763118091E-04  -0.7581261643E-06   0.0000000000E+00   0.0000000000E+00   0.8941995086E-02  -0.4893472121E-03   0.0000000000E+00  -0.4044248310E-02
   0.1729965737E+00   0.0000000000E+00   0.7990773838E-04   0.0000000000E+00   0.0000000000E+00   0.0000000000E+00   0.6226735396E-02   0.2543430048E-03   0.0000000000E+00  -0.7405075212E-05
   0.1448694151E+00   0.3344407525E-01   0.7563610300E-04  -0.1566146386E-05   0.0000000000E+00   0.0000000000E+00   0.5780662653E-02  -0.3663240414E-02   0.0000000000E+00  -0.4725609316E-02
   0.1385186030E+00   0.3726056645E-01   0.7447696885E-04  -0.2163849941E-05   0.0000000000E+00   0.0000000000E+00   0.5895548341E-02  -0.4718435945E-02   0.0000000000E+00  -0.5087603326E-02
   0.1305729166E+00   0.3127084033E-01   0.7513364744E-04  -0.2330973215E-05   0.0000000000E+00   0.0000000000E+00   0.3806315298E-02  -0.6231970299E-02   0.0000000000E+00  -0.4450385600E-02
   0.1369235865E+00   0.2745444115E-01   0.7613547837E-04  -0.1641251337E-05   0.0000000000E+00   0.0000000000E+00   0.3586424162E-02  -0.5157079118E-02   0.0000000000E+00  -0.3779712697E-02
   0.1469378760E+00   0.8892364238E-02   0.7845401460E-04  -0.3572616209E-06   0.0000000000E+00   0.0000000000E+00   0.2712964171E-02  -0.3184852411E-02   0.0000000000E+00  -0.1443931301E-02
   0.1521621976E+00   0.0000000000E+00   0.7886057092E-04   0.0000000000E+00   0.0000000000E+00   0.0000000000E+00   0.3335571740E-02  -0.2374524093E-02   0.0000000000E+00   0.5001795905E-05
   0.1210237617E+00   0.3034562210E-01   0.7482065490E-04  -0.3166802335E-05   0.0000000000E+00   0.0000000000E+00   0.1658399225E-02  -0.9028483852E-02   0.0000000000E+00  -0.3277428858E-02
   0.1405540026E+00   0.1962496846E-01   0.7735862605E-04  -0.1015642941E-05   0.0000000000E+00   0.0000000000E+00   0.2894269068E-02  -0.4579794343E-02   0.0000000000E+00  -0.2905514309E-02
   0.3500999940E+00   0.1442278754E+00   0.1000000000E-03  -0.2907571103E-05   0.0000000000E+00   0.0000000000E+00   0.2271155520E-01   0.1595915158E-02   0.0000000000E+00  -0.4776601083E-06
   0.3417294262E+00   0.1490348744E+00   0.9810323791E-04  -0.3172623256E-05   0.0000000000E+00   0.0000000000E+00   0.2311540866E-01   0.1474393788E-02   0.0000000000E+00  -0.2056770454E-03
   0.2139707918E+00   0.2161801074E+00   0.6079279363E-04  -0.1243657472E-04   0.0000000000E+00   0.0000000000E+00   0.2992717563E-01  -0.2452507829E-03   0.0000000000E+00  -0.5439715415E-03
   0.2188251993E+00   0.2246415686E+00   0.6146030885E-04  -0.1282240170E-04   0.0000000000E+00   0.0000000000E+00   0.3050605253E-01  -0.1298992683E-03   0.0000000000E+00  -0.4561068606E-03
   0.2090985442E+00   0.2246348306E+00   0.5848316372E-04  -0.1364536868E-04   0.0000000000E+00   0.0000000000E+00   0.3063338410E-01  -0.1862656511E-03   0.0000000000E+00  -0.3579615763E-03
   0.3163623964E+00   0.1058364846E+00   0.9362437268E-04  -0.1352425665E-05   0.0000000000E+00   0.0000000000E+00   0.1967005289E-01   0.2464593860E-02   0.0000000000E+00  -0.9175687538E-03
   0.3079234965E+00   0.1106690220E+00   0.9185151156E-04  -0.1574028445E-05   0.0000000000E+00   0.0000000000E+00   0.2005792663E-01   0.2254492447E-02   0.0000000000E+00  -0.1143468544E-02
   0.3500999940E+00   0.1249980032E+00   0.1000000000E-03  -0.1996786216E-05   0.0000000000E+00   0.0000000000E+00   0.2116691422E-01   0.2095466990E-02   0.0000000000E+00  -0.4559204671E-06
   0.3247180762E+00   0.9138755054E-01   0.9550515208E-04  -0.8836601950E-06   0.0000000000E+00   0.0000000000E+00   0.1858164902E-01   0.2922692985E-02   0.0000000000E+00  -0.6789438805E-03
   0.3247753479E+00   0.1010041768E+00   0.9531791182E-04  -0.1161176287E-05   0.0000000000E+00   0.0000000000E+00   0.1930013385E-01   0.2669012903E-02   0.0000000000E+00  -0.6820426214E-03
   0.3500999940E+00   0.1057679593E+00   0.1000000000E-03  -0.1272670158E-05   0.0000000000E+00   0.0000000000E+00   0.1967334028E-01   0.2616589819E-02   0.0000000000E+00  -0.4376054400E-06
   0.2889713790E+00   0.3564830452E-01   0.9135901011E-04  -0.9357729048E-07   0.0000000000E+00   0.0000000000E+00   0.1490279204E-01   0.3873055375E-02   0.0000000000E+00  -0.9138052626E-03
   0.2987377014E+00   0.5045195244E-01   0.9235437390E-04  -0.2016633039E-06   0.0000000000E+00   0.0000000000E+00   0.1578484756E-01   0.3702811558E-02   0.0000000000E+00  -0.1006281854E-02
   0.3002405722E+00   0.3573257335E-01   0.9291917907E-04  -0.8335120801E-07   0.0000000000E+00   0.0000000000E+00   0.1516479227E-01   0.3988986949E-02   0.0000000000E+00  -0.7361056477E-03
   0.3051237449E+00   0.4313440876E-01   0.9345885443E-04  -0.1278369269E-06   0.0000000000E+00   0.0000000000E+00   0.1552607937E-01   0.3891497760E-02   0.0000000000E+00  -0.7690876054E-03
   0.2938545349E+00   0.4305013361E-01   0.9185093296E-04  -0.1406928818E-06   0.0000000000E+00   0.0000000000E+00   0.1532623667E-01   0.3780164391E-02   0.0000000000E+00  -0.9678669438E-03
   0.3500999940E+00   0.8653773156E-01   0.1000000000E-03  -0.7322406491E-06   0.0000000000E+00   0.0000000000E+00   0.1828874080E-01   0.3131554490E-02   0.0000000000E+00  -0.4176880795E-06
   0.3149454460E+00   0.5754630956E-01   0.9460902629E-04  -0.2576438207E-06   0.0000000000E+00   0.0000000000E+00   0.1635380007E-01   0.3703009645E-02   0.0000000000E+00  -0.7429546645E-03
   0.3238854965E+00   0.6237767326E-01   0.9589950814E-04  -0.3085426380E-06   0.0000000000E+00   0.0000000000E+00   0.1669267570E-01   0.3647204481E-02   0.0000000000E+00  -0.5681743532E-03
   0.3154103134E+00   0.6725067762E-01   0.9447039407E-04  -0.3936784704E-06   0.0000000000E+00   0.0000000000E+00   0.1694762095E-01   0.3470404145E-02   0.0000000000E+00  -0.8057481665E-03
   0.3500999940E+00   0.6730733263E-01   0.1000000000E-03  -0.3630675767E-06   0.0000000000E+00   0.0000000000E+00   0.1707618465E-01   0.3606739491E-02   0.0000000000E+00  -0.4292318271E-06
   0.3217312444E+00   0.4152548816E-01   0.9587943329E-04  -0.1030446854E-06   0.0000000000E+00   0.0000000000E+00   0.1565302830E-01   0.4045782251E-02   0.0000000000E+00  -0.4455664181E-03
   0.3234491277E+00   0.5239022397E-01   0.9598573670E-04  -0.1912292211E-06   0.0000000000E+00   0.0000000000E+00   0.1615220511E-01   0.3849310521E-02   0.0000000000E+00  -0.5343943436E-03
   0.3132276253E+00   0.4668159512E-01   0.9456433134E-04  -0.1479788343E-06   0.0000000000E+00   0.0000000000E+00   0.1582463085E-01   0.3893376688E-02   0.0000000000E+00  -0.6619545872E-03
   0.3500999940E+00   0.4807678164E-01   0.1000000000E-03  -0.1422602794E-06   0.0000000000E+00   0.0000000000E+00   0.1609909362E-01   0.4005075971E-02   0.0000000000E+00   0.5681388267E-07
   0.3225662000E+00   0.7977485601E-02   0.9624997997E-04  -0.3779284681E-08   0.0000000000E+00   0.0000000000E+00   0.1482918133E-01   0.4389017315E-02   0.0000000000E+00  -0.1045045990E-03
   0.3303952767E+00   0.1308584398E-01   0.9729968720E-04  -0.6520331085E-08   0.0000000000E+00   0.0000000000E+00   0.1500883876E-01   0.4391100321E-02   0.0000000000E+00  -0.1052958285E-03
   0.6705650627E-01   0.1969299626E+00   0.1883447161E-04  -0.3366044889E-04   0.0000000000E+00   0.0000000000E+00   0.2938260048E-01   0.3092962563E-03   0.0000000000E+00   0.3841688465E-02
   0.4892296331E-01   0.2014227089E+00   0.1330291185E-04  -0.3704213389E-04   0.0000000000E+00   0.0000000000E+00   0.2834421346E-01   0.1109158611E-02   0.0000000000E+00   0.3302147839E-02
   0.6234075877E-01   0.2063891116E+00   0.1670046977E-04  -0.3527344440E-04   0.0000000000E+00   0.0000000000E+00   0.2812712854E-01   0.4585811170E-03   0.0000000000E+00   0.3408493846E-02
   0.5327406751E-01   0.2086355257E+00   0.1401680757E-04  -0.3692333345E-04   0.0000000000E+00   0.0000000000E+00   0.2757303340E-01   0.6963126113E-03   0.0000000000E+00   0.3140910224E-02
   0.5798969685E-01   0.1991762535E+00   0.1602885479E-04  -0.3543351013E-04   0.0000000000E+00   0.0000000000E+00   0.2891999313E-01   0.7145817729E-03   0.0000000000E+00   0.3591750935E-02
   0.4862012582E-01   0.2499595050E+00   0.9013922716E-05  -0.4049498277E-04   0.0000000000E+00   0.0000000000E+00   0.2071624112E-01  -0.4296279337E-04   0.0000000000E+00   0.8100421565E-04
   0.7742370689E-01   0.2156286115E+00   0.2005719423E-04  -0.3334649301E-04   0.0000000000E+00   0.0000000000E+00   0.2785198319E-01  -0.7637221570E-04   0.0000000000E+00   0.3168034700E-02
   0.7262875822E-01   0.2242814067E+00   0.1782862031E-04  -0.3492232845E-04   0.0000000000E+00   0.0000000000E+00   0.2664642473E-01   0.4482676553E-04   0.0000000000E+00   0.2565657101E-02
   0.6272953259E-01   0.2243913185E+00   0.1520918554E-04  -0.3661954987E-04   0.0000000000E+00   0.0000000000E+00   0.2611482841E-01   0.1556246175E-03   0.0000000000E+00   0.2485986980E-02
   0.6752436003E-01   0.2157384212E+00   0.1731652653E-04  -0.3513183231E-04   0.0000000000E+00   0.0000000000E+00   0.2733018888E-01   0.1585438485E-03   0.0000000000E+00   0.3118761717E-02
   0.6806885243E-01   0.2499623731E+00   0.1329723308E-04  -0.3762685147E-04   0.0000000000E+00   0.0000000000E+00   0.2335409139E-01  -0.1131710630E-04   0.0000000000E+00   0.9728320198E-04
   0.8759953103E-01   0.1993794261E+00   0.2466913403E-04  -0.2995490276E-04   0.0000000000E+00   0.0000000000E+00   0.2960445893E-01  -0.5722905009E-03   0.0000000000E+00   0.3602763595E-02
   0.1068036881E+00   0.1994602712E+00   0.3042309653E-04  -0.2617780445E-04   0.0000000000E+00   0.0000000000E+00   0.2988652631E-01  -0.1118513891E-02   0.0000000000E+00   0.3005374051E-02
   0.9720159876E-01   0.1994198521E+00   0.2753546227E-04  -0.2806288658E-04   0.0000000000E+00   0.0000000000E+00   0.2976831598E-01  -0.8455343566E-03   0.0000000000E+00   0.3323981939E-02
   0.1019710741E+00   0.2077808264E+00   0.2799809643E-04  -0.2793661991E-04   0.0000000000E+00   0.0000000000E+00   0.2931689044E-01  -0.7363055261E-03   0.0000000000E+00   0.2935300780E-02
   0.9236905110E-01   0.2077404237E+00   0.2517679583E-04  -0.2980427290E-04   0.0000000000E+00   0.0000000000E+00   0.2915791571E-01  -0.5658869578E-03   0.0000000000E+00   0.3212964720E-02
   0.8751811397E-01   0.2499657178E+00   0.1810797028E-04  -0.3428224979E-04   0.0000000000E+00   0.0000000000E+00   0.2612028811E-01   0.1797298699E-04   0.0000000000E+00   0.8976856153E-04
   0.1120200937E+00   0.1455586469E+00   0.3967071417E-04  -0.1881413990E-04   0.0000000000E+00   0.0000000000E+00   0.3137449165E-01  -0.4114129122E-02   0.0000000000E+00   0.6582940682E-03
   0.1041136365E+00   0.1665550893E+00   0.3371154740E-04  -0.2309966673E-04   0.0000000000E+00   0.0000000000E+00   0.3151981338E-01  -0.2568145674E-02   0.0000000000E+00   0.2551458600E-02
   0.9068310672E-01   0.1518027009E+00   0.3150512160E-04  -0.2417210199E-04   0.0000000000E+00   0.0000000000E+00   0.3301466506E-01  -0.2531904631E-02   0.0000000000E+00   0.2399675853E-02
   0.1080667438E+00   0.1560568406E+00   0.3657379895E-04  -0.2099139857E-04   0.0000000000E+00   0.0000000000E+00   0.3148001108E-01  -0.3274367637E-02   0.0000000000E+00   0.1628890832E-02
   0.9739836024E-01   0.1591789157E+00   0.3259343974E-04  -0.2361527043E-04   0.0000000000E+00   0.0000000000E+00   0.3220719804E-01  -0.2625710323E-02   0.0000000000E+00   0.2439744891E-02
   0.1013516138E+00   0.1486807313E+00   0.3560179681E-04  -0.2144274618E-04   0.0000000000E+00   0.0000000000E+00   0.3223693621E-01  -0.3344210119E-02   0.0000000000E+00   0.1555831866E-02
   0.1069678751E+00   0.2499692556E+00   0.2343310459E-04  -0.3074439929E-04   0.0000000000E+00   0.0000000000E+00   0.2863571406E-01   0.3864050911E-04   0.0000000000E+00   0.7224449063E-04
   0.9494497746E-01   0.9628505870E-01   0.4754335905E-04  -0.1571460164E-04   0.0000000000E+00   0.0000000000E+00   0.2751554355E-01  -0.4997874034E-02   0.0000000000E+00  -0.5208430080E-02
   0.1089565891E+00   0.7685415480E-01   0.5857509291E-04  -0.1005050208E-04   0.0000000000E+00   0.0000000000E+00   0.1850452221E-01  -0.6300607790E-02   0.0000000000E+00  -0.6819944315E-02
   0.9186772073E-01   0.8503836448E-01   0.5141463300E-04  -0.1519122156E-04   0.0000000000E+00   0.0000000000E+00   0.2213141953E-01  -0.3943386452E-02   0.0000000000E+00  -0.6099735184E-02
   0.9887381193E-01   0.7532299076E-01   0.5721592840E-04  -0.1228093892E-04   0.0000000000E+00   0.0000000000E+00   0.1785374852E-01  -0.4406601027E-02   0.0000000000E+00  -0.6876285125E-02
   0.1019509407E+00   0.8656969890E-01   0.5321666680E-04  -0.1279039523E-04   0.0000000000E+00   0.0000000000E+00   0.2307634205E-01  -0.5677706637E-02   0.0000000000E+00  -0.6168097188E-02
   0.1264180921E+00   0.2499727423E+00   0.2919911271E-04  -0.2725770590E-04   0.0000000000E+00   0.0000000000E+00   0.3065143760E-01   0.4861783849E-04   0.0000000000E+00   0.5071247700E-04
   0.1507215183E+00   0.2246359613E+00   0.4046927158E-04  -0.2082869755E-04   0.0000000000E+00   0.0000000000E+00   0.3050539506E-01  -0.4319434193E-03   0.0000000000E+00   0.8726983442E-03
   0.1458512401E+00   0.2161922426E+00   0.4009912546E-04  -0.2079036363E-04   0.0000000000E+00   0.0000000000E+00   0.3021580885E-01  -0.6537176054E-03   0.0000000000E+00   0.1231831678E-02
   0.1458686406E+00   0.2499759948E+00   0.3529759299E-04  -0.2400515006E-04   0.0000000000E+00   0.0000000000E+00   0.3205697159E-01   0.4934252220E-04   0.0000000000E+00   0.2968681021E-04
   0.1945057789E+00   0.2161572186E+00   0.5492394368E-04  -0.1426941818E-04   0.0000000000E+00   0.0000000000E+00   0.3019035064E-01  -0.3912581488E-03   0.0000000000E+00  -0.2156739690E-03
   0.2042382850E+00   0.2161687223E+00   0.5786601799E-04  -0.1330072488E-04   0.0000000000E+00   0.0000000000E+00   0.3008683266E-01  -0.3095119292E-03   0.0000000000E+00  -0.3897301069E-03
   0.1993659728E+00   0.2246233857E+00   0.5549076155E-04  -0.1456932385E-04   0.0000000000E+00   0.0000000000E+00   0.3076967209E-01  -0.2222294325E-03   0.0000000000E+00  -0.2179015413E-03
   0.1653193891E+00   0.2499788969E+00   0.4161014038E-04  -0.2110307833E-04   0.0000000000E+00   0.0000000000E+00   0.3285749898E-01   0.4355864606E-04   0.0000000000E+00   0.1199910176E-04
   0.1896387859E+00   0.2246207468E+00   0.5248892145E-04  -0.1559924722E-04   0.0000000000E+00   0.0000000000E+00   0.3080447065E-01  -0.2810265591E-03   0.0000000000E+00  -0.6242434709E-04
   0.1847735272E+00   0.2161598511E+00   0.5196817896E-04  -0.1534787878E-04   0.0000000000E+00   0.0000000000E+00   0.3030066449E-01  -0.4503825189E-03   0.0000000000E+00   0.1508561252E-04
   0.1847702421E+00   0.2499813917E+00   0.4802707699E-04  -0.1860826411E-04   0.0000000000E+00   0.0000000000E+00   0.3313555829E-01   0.3414854610E-04   0.0000000000E+00  -0.1028365632E-05
   0.2251519158E+00   0.3586941935E-01   0.8309277225E-04  -0.2535548246E-06   0.0000000000E+00   0.0000000000E+00   0.1258074130E-01   0.2477108136E-02   0.0000000000E+00  -0.2299495494E-02
   0.2462748406E+00   0.3605654233E-01   0.8567864047E-04  -0.1773659376E-06   0.0000000000E+00   0.0000000000E+00   0.1357934904E-01   0.3101238551E-02   0.0000000000E+00  -0.1767747556E-02
   0.2303612834E+00   0.2690465026E-01   0.8419241469E-04  -0.1376405088E-06   0.0000000000E+00   0.0000000000E+00   0.1232992072E-01   0.2824664753E-02   0.0000000000E+00  -0.1660189709E-02
   0.2409227001E+00   0.2699819829E-01   0.8542410113E-04  -0.1130127200E-06   0.0000000000E+00   0.0000000000E+00   0.1282977590E-01   0.3114671414E-02   0.0000000000E+00  -0.1451649623E-02
   0.2357133563E+00   0.3596298508E-01   0.8436427218E-04  -0.2112228515E-06   0.0000000000E+00   0.0000000000E+00   0.1316249520E-01   0.2813719627E-02   0.0000000000E+00  -0.2027628717E-02
   0.2042211247E+00   0.2499834687E+00   0.5445869443E-04  -0.1653125907E-04   0.0000000000E+00   0.0000000000E+00   0.3301279380E-01   0.2351194040E-04   0.0000000000E+00  -0.9388683430E-05
   0.2740818453E+00   0.1830400235E+00   0.8039628699E-04  -0.6332491180E-05   0.0000000000E+00   0.0000000000E+00   0.2633908103E-01   0.3300799380E-03   0.0000000000E+00  -0.1237518671E-02
   0.2787416115E+00   0.1913787928E+00   0.8113552487E-04  -0.6834171234E-05   0.0000000000E+00   0.0000000000E+00   0.2692733459E-01   0.3011797056E-03   0.0000000000E+00  -0.1070064455E-02
   0.2687459118E+00   0.1912584244E+00   0.7845281816E-04  -0.7143550302E-05   0.0000000000E+00   0.0000000000E+00   0.2706249332E-01   0.1992809265E-03   0.0000000000E+00  -0.1148244321E-02
   0.2236719559E+00   0.2499851488E+00   0.6083987039E-04  -0.1485123752E-04   0.0000000000E+00   0.0000000000E+00   0.3262007063E-01   0.1330265593E-04   0.0000000000E+00  -0.1375175604E-04
   0.2334676331E+00   0.2162075517E+00   0.6660311115E-04  -0.1099434742E-04   0.0000000000E+00   0.0000000000E+00   0.2959088573E-01  -0.1141280250E-03   0.0000000000E+00  -0.7268122592E-03
   0.2285736743E+00   0.2246553068E+00   0.6442726355E-04  -0.1209315734E-04   0.0000000000E+00   0.0000000000E+00   0.3033332581E-01  -0.9845201146E-04   0.0000000000E+00  -0.5342184612E-03
   0.2237192293E+00   0.2161938677E+00   0.6370727643E-04  -0.1166927591E-04   0.0000000000E+00   0.0000000000E+00   0.2977450217E-01  -0.1750130823E-03   0.0000000000E+00  -0.6443081138E-03
   0.2431226820E+00   0.2499864707E+00   0.6712998694E-04  -0.1352934787E-04   0.0000000000E+00   0.0000000000E+00   0.3207852669E-01   0.4411399893E-05   0.0000000000E+00  -0.1511446640E-04
   0.3149775065E+00   0.2132910989E+00   0.9019153726E-04  -0.7818114796E-05   0.0000000000E+00   0.0000000000E+00   0.2811344086E-01   0.2157198466E-03   0.0000000000E+00  -0.4291995212E-03
   0.3241023923E+00   0.2074547729E+00   0.9285425978E-04  -0.7240062687E-05   0.0000000000E+00   0.0000000000E+00   0.2765333848E-01   0.3112841793E-03   0.0000000000E+00  -0.3479905048E-03
   0.3153289102E+00   0.2028327006E+00   0.9055320946E-04  -0.6972432165E-05   0.0000000000E+00   0.0000000000E+00   0.2736687036E-01   0.3476142648E-03   0.0000000000E+00  -0.5052335346E-03
   0.2625732981E+00   0.2499874807E+00   0.7331010988E-04  -0.1251927692E-04   0.0000000000E+00   0.0000000000E+00   0.3149013542E-01  -0.2912904461E-05   0.0000000000E+00  -0.1458677366E-04
   0.3500999940E+00   0.1923017413E+00   0.1000000000E-03  -0.5954747851E-05   0.0000000000E+00   0.0000000000E+00   0.2649003224E-01   0.5640431855E-03   0.0000000000E+00  -0.7136729590E-06
   0.3416531369E+00   0.1874468221E+00   0.9780988360E-04  -0.5612888546E-05   0.0000000000E+00   0.0000000000E+00   0.2614214304E-01   0.6491416338E-03   0.0000000000E+00  -0.1580816856E-03
   0.3416635964E+00   0.1969600799E+00   0.9774941878E-04  -0.6315092138E-05   0.0000000000E+00   0.0000000000E+00   0.2684239325E-01   0.4871142368E-03   0.0000000000E+00  -0.1314567122E-03
   0.2820238330E+00   0.2499882251E+00   0.7937898457E-04  -0.1177485289E-04   0.0000000000E+00   0.0000000000E+00   0.3093471961E-01  -0.8736841656E-05   0.0000000000E+00  -0.1341621012E-04
   0.2930389247E+00   0.2158202677E+00   0.8391372050E-04  -0.8434334849E-05   0.0000000000E+00   0.0000000000E+00   0.2853075881E-01   0.1460113487E-03   0.0000000000E+00  -0.6117041999E-03
   0.2878479376E+00   0.2243374625E+00   0.8207658162E-04  -0.9294548582E-05   0.0000000000E+00   0.0000000000E+00   0.2920006228E-01   0.8082049878E-04   0.0000000000E+00  -0.5079668076E-03
   0.2778469208E+00   0.2245052035E+00   0.7914380781E-04  -0.9608547105E-05   0.0000000000E+00   0.0000000000E+00   0.2936804402E-01   0.6713480719E-04   0.0000000000E+00  -0.5598976432E-03
   0.2830380083E+00   0.2159880438E+00   0.8105032558E-04  -0.8713210376E-05   0.0000000000E+00   0.0000000000E+00   0.2868388878E-01   0.1082058076E-03   0.0000000000E+00  -0.6784583122E-03
   0.3014742389E+00   0.2499887449E+00   0.8534888729E-04  -0.1125511544E-04   0.0000000000E+00   0.0000000000E+00   0.3047326388E-01  -0.1380459069E-04   0.0000000000E+00  -0.1250151971E-04
   0.3345646398E+00   0.2178897049E+00   0.9561983949E-04  -0.8008098487E-05   0.0000000000E+00   0.0000000000E+00   0.2828902628E-01   0.1871011662E-03   0.0000000000E+00  -0.1783407049E-03
   0.3423322701E+00   0.2243249515E+00   0.9777814865E-04  -0.8513520904E-05   0.0000000000E+00   0.0000000000E+00   0.2866369406E-01   0.1327362802E-03   0.0000000000E+00  -0.7633392172E-04
   0.3371276562E+00   0.2315549361E+00   0.9623217238E-04  -0.9153865817E-05   0.0000000000E+00   0.0000000000E+00   0.2908733195E-01   0.5812296735E-04   0.0000000000E+00  -0.9677352270E-04
   0.3293600051E+00   0.2251196706E+00   0.9405314934E-04  -0.8652361459E-05   0.0000000000E+00   0.0000000000E+00   0.2876515084E-01   0.1203302561E-03   0.0000000000E+00  -0.1839021991E-03
   0.2602277386E-01   0.1504113737E+00   0.9235658579E-05  -0.3688933985E-04   0.0000000000E+00   0.0000000000E+00   0.3695285447E-01   0.5770386206E-02   0.0000000000E+00   0.2046366145E-02
   0.5149894081E-01   0.1655957250E+00   0.1663211450E-04  -0.3390000346E-04   0.0000000000E+00   0.0000000000E+00   0.3332361306E-01   0.2104086912E-02   0.0000000000E+00   0.3740303444E-02
   0.5268095239E-01   0.1552871804E+00   0.1805079081E-04  -0.3283860838E-04   0.0000000000E+00   0.0000000000E+00   0.3490670016E-01   0.2161926438E-02   0.0000000000E+00   0.3368442407E-02
   0.4304834617E-01   0.1604005873E+00   0.1429186779E-04  -0.3499973897E-04   0.0000000000E+00   0.0000000000E+00   0.3428711402E-01   0.3273847175E-02   0.0000000000E+00   0.3221905589E-02
   0.4423033806E-01   0.1500919331E+00   0.1569455974E-04  -0.3404694696E-04   0.0000000000E+00   0.0000000000E+00   0.3634802829E-01   0.3459523101E-02   0.0000000000E+00   0.2808969270E-02
   0.4272347480E-01   0.2083993278E+00   0.1117379817E-04  -0.3841315102E-04   0.0000000000E+00   0.0000000000E+00   0.2719363758E-01   0.1098333978E-02   0.0000000000E+00   0.2761283036E-02
   0.3513387740E-01   0.2047957556E+00   0.9322197881E-05  -0.3909339597E-04   0.0000000000E+00   0.0000000000E+00   0.2745344462E-01   0.1492428306E-02   0.0000000000E+00   0.2545020442E-02
   0.4133330093E-01   0.1978190041E+00   0.1138632715E-04  -0.3785388754E-04   0.0000000000E+00   0.0000000000E+00   0.2862399567E-01   0.1656572487E-02   0.0000000000E+00   0.3026499156E-02
   0.3377542392E-01   0.1845838819E+00   0.9865720242E-05  -0.3792905589E-04   0.0000000000E+00   0.0000000000E+00   0.3044007196E-01   0.2786577816E-02   0.0000000000E+00   0.2873364478E-02
   0.2532251980E-01   0.1797196517E+00   0.7549896482E-05  -0.3855429557E-04   0.0000000000E+00   0.0000000000E+00   0.3114530221E-01   0.3631096832E-02   0.0000000000E+00   0.2247997638E-02
   0.7732801629E-01   0.1981546603E+00   0.2174568780E-04  -0.3184169699E-04   0.0000000000E+00   0.0000000000E+00   0.2947824685E-01  -0.1420723330E-03   0.0000000000E+00   0.3753869996E-02
   0.8251158886E-01   0.2075039816E+00   0.2233676090E-04  -0.3168744096E-04   0.0000000000E+00   0.0000000000E+00   0.2874236894E-01  -0.2610409743E-03   0.0000000000E+00   0.3373215151E-02
   0.7224017016E-01   0.2062792833E+00   0.1950946165E-04  -0.3350765564E-04   0.0000000000E+00   0.0000000000E+00   0.2859450229E-01   0.3097556411E-04   0.0000000000E+00   0.3492633076E-02
   0.3333320477E+00   0.1538174352E+00   0.9612870389E-04  -0.3466802968E-05   0.0000000000E+00   0.0000000000E+00   0.2350357443E-01   0.1332193959E-02   0.0000000000E+00  -0.3985511547E-03
   0.3500999940E+00   0.1826870553E+00   0.1000000000E-03  -0.5263712800E-05   0.0000000000E+00   0.0000000000E+00   0.2575499920E-01   0.7384107964E-03   0.0000000000E+00  -0.5510267336E-06
   0.3248835546E+00   0.1106222925E+00   0.9513355049E-04  -0.1484540356E-05   0.0000000000E+00   0.0000000000E+00   0.2003940695E-01   0.2404432506E-02   0.0000000000E+00  -0.6876445872E-03
   0.2473971595E+00   0.9581605972E-01   0.8136548992E-04  -0.1707382130E-05   0.0000000000E+00   0.0000000000E+00   0.1881967787E-01   0.1320797063E-02   0.0000000000E+00  -0.2875871341E-02
   0.2648018298E+00   0.8646272010E-01   0.8523477348E-04  -0.1111300729E-05   0.0000000000E+00   0.0000000000E+00   0.1795494227E-01   0.2139250838E-02   0.0000000000E+00  -0.2331172413E-02
   0.2646576375E+00   0.1059561652E+00   0.8376545226E-04  -0.1856843401E-05   0.0000000000E+00   0.0000000000E+00   0.1973586813E-01   0.1565607976E-02   0.0000000000E+00  -0.2342131048E-02
   0.2560995443E+00   0.9113941857E-01   0.8334927801E-04  -0.1380633412E-05   0.0000000000E+00   0.0000000000E+00   0.1835673556E-01   0.1728511458E-02   0.0000000000E+00  -0.2605551115E-02
   0.2647297329E+00   0.9620946981E-01   0.8451388565E-04  -0.1456988093E-05   0.0000000000E+00   0.0000000000E+00   0.1883937843E-01   0.1830645789E-02   0.0000000000E+00  -0.2350198942E-02
   0.2560273754E+00   0.1008861178E+00   0.8252737418E-04  -0.1777197156E-05   0.0000000000E+00   0.0000000000E+00   0.1931146283E-01   0.1463941998E-02   0.0000000000E+00  -0.2593215568E-02
   0.3500999940E+00   0.2115310209E+00   0.1000000000E-03  -0.7443062110E-05   0.0000000000E+00   0.0000000000E+00   0.2784141831E-01   0.2700138718E-03   0.0000000000E+00   0.7751978186E-06
   0.3500999940E+00   0.2019163899E+00   0.1000000000E-03  -0.6682087096E-05   0.0000000000E+00   0.0000000000E+00   0.2716541470E-01   0.4074587297E-03   0.0000000000E+00  -0.5326931707E-06
   0.3416635356E+00   0.2065747114E+00   0.9768856900E-04  -0.7059596785E-05   0.0000000000E+00   0.0000000000E+00   0.2752107541E-01   0.3391227626E-03   0.0000000000E+00  -0.1250503163E-03
   0.3006115844E+00   0.2008401436E+00   0.8660439997E-04  -0.7050433729E-05   0.0000000000E+00   0.0000000000E+00   0.2737119777E-01   0.3229496167E-03   0.0000000000E+00  -0.7142508549E-03
   0.2959597112E+00   0.1829972215E+00   0.8609922903E-04  -0.5786491900E-05   0.0000000000E+00   0.0000000000E+00   0.2606676589E-01   0.5365056386E-03   0.0000000000E+00  -0.9627189896E-03
   0.2982856242E+00   0.1919187032E+00   0.8632819576E-04  -0.6404784061E-05   0.0000000000E+00   0.0000000000E+00   0.2672180403E-01   0.4315225241E-03   0.0000000000E+00  -0.8349426850E-03
   0.3058199834E+00   0.1876857625E+00   0.8847838486E-04  -0.5955539456E-05   0.0000000000E+00   0.0000000000E+00   0.2634399044E-01   0.5252290521E-03   0.0000000000E+00  -0.7668244857E-03
   0.3081459801E+00   0.1966072133E+00   0.8879112089E-04  -0.6590736381E-05   0.0000000000E+00   0.0000000000E+00   0.2699041848E-01   0.4148124334E-03   0.0000000000E+00  -0.6460697931E-03
   0.3249253952E+00   0.1394259710E+00   0.9450520441E-04  -0.2733951921E-05   0.0000000000E+00   0.0000000000E+00   0.2236709851E-01   0.1647741763E-02   0.0000000000E+00  -0.6391822552E-03
   0.2994915135E+00   0.1250468222E+00   0.8957452697E-04  -0.2247764878E-05   0.0000000000E+00   0.0000000000E+00   0.2125803657E-01   0.1766792655E-02   0.0000000000E+00  -0.1338044466E-02
   0.2994339955E+00   0.1154651676E+00   0.8999250030E-04  -0.1829387979E-05   0.0000000000E+00   0.0000000000E+00   0.2045707344E-01   0.2007694534E-02   0.0000000000E+00  -0.1367006713E-02
   0.3079810613E+00   0.1202507110E+00   0.9151027495E-04  -0.1958015542E-05   0.0000000000E+00   0.0000000000E+00   0.2083529753E-01   0.1994539065E-02   0.0000000000E+00  -0.1127980539E-02
   0.3160647010E+00   0.8658670333E-01   0.9410101664E-04  -0.7853651920E-06   0.0000000000E+00   0.0000000000E+00   0.1823018834E-01   0.2983915819E-02   0.0000000000E+00  -0.8909031331E-03
   0.2798056915E+00   0.5578748972E-01   0.8937847346E-04  -0.3119835201E-06   0.0000000000E+00   0.0000000000E+00   0.1576728407E-01   0.3325669358E-02   0.0000000000E+00  -0.1529599529E-02
   0.2983374898E+00   0.6737569921E-01   0.9176183412E-04  -0.4375866436E-06   0.0000000000E+00   0.0000000000E+00   0.1677905449E-01   0.3308111210E-02   0.0000000000E+00  -0.1228515601E-02
   0.2892716933E+00   0.5311972843E-01   0.9087833370E-04  -0.2513720758E-06   0.0000000000E+00   0.0000000000E+00   0.1578537887E-01   0.3519341311E-02   0.0000000000E+00  -0.1262361718E-02
   0.2985375967E+00   0.5891384222E-01   0.9207371747E-04  -0.3050801860E-06   0.0000000000E+00   0.0000000000E+00   0.1628723588E-01   0.3493949336E-02   0.0000000000E+00  -0.1120153799E-02
   0.2890715552E+00   0.6158159934E-01   0.9053515526E-04  -0.3699588298E-06   0.0000000000E+00   0.0000000000E+00   0.1629216477E-01   0.3321272190E-02   0.0000000000E+00  -0.1376007605E-02
   0.3338958971E+00   0.2097540630E+00   0.9552211559E-04  -0.7347968952E-05   0.0000000000E+00   0.0000000000E+00   0.2773615062E-01   0.2917135837E-03   0.0000000000E+00  -0.2151621761E-03
   0.3423323192E+00   0.2147103764E+00   0.9782717272E-04  -0.7712649472E-05   0.0000000000E+00   0.0000000000E+00   0.2806139535E-01   0.2331354202E-03   0.0000000000E+00  -0.8925720815E-04
   0.3195663669E+00   0.2228203700E+00   0.9128190509E-04  -0.8555027370E-05   0.0000000000E+00   0.0000000000E+00   0.2868477185E-01   0.1418017538E-03   0.0000000000E+00  -0.2947507225E-03
   0.3090105742E+00   0.2228142892E+00   0.8825323121E-04  -0.8704788726E-05   0.0000000000E+00   0.0000000000E+00   0.2880390892E-01   0.1259580375E-03   0.0000000000E+00  -0.3788849059E-03
   0.3162658841E+00   0.1537053596E+00   0.9218206322E-04  -0.3575390636E-05   0.0000000000E+00   0.0000000000E+00   0.2356208576E-01   0.1249370456E-02   0.0000000000E+00  -0.7952191622E-03
   0.3248124438E+00   0.1489662019E+00   0.9426679698E-04  -0.3240053191E-05   0.0000000000E+00   0.0000000000E+00   0.2314538896E-01   0.1415202060E-02   0.0000000000E+00  -0.6103154963E-03
   0.3247854924E+00   0.1585566024E+00   0.9404742409E-04  -0.3792618031E-05   0.0000000000E+00   0.0000000000E+00   0.2392725569E-01   0.1191364375E-02   0.0000000000E+00  -0.5813439086E-03
   0.2237655747E+00   0.1992680490E+00   0.6530468862E-04  -0.1014203469E-04   0.0000000000E+00   0.0000000000E+00   0.2851462596E-01  -0.3446672399E-03   0.0000000000E+00  -0.9707162308E-03
   0.2042533327E+00   0.1992090581E+00   0.5968069851E-04  -0.1171891051E-04   0.0000000000E+00   0.0000000000E+00   0.2891298406E-01  -0.6292013196E-03   0.0000000000E+00  -0.6863903329E-03
   0.2188682028E+00   0.2077240931E+00   0.6306879804E-04  -0.1126692103E-04   0.0000000000E+00   0.0000000000E+00   0.2920993718E-01  -0.3208726415E-03   0.0000000000E+00  -0.7494473866E-03
   0.2091120198E+00   0.2076945901E+00   0.6020175743E-04  -0.1206994376E-04   0.0000000000E+00   0.0000000000E+00   0.2941991564E-01  -0.4127675236E-03   0.0000000000E+00  -0.6139440291E-03
   0.2140094725E+00   0.1992385948E+00   0.6250448475E-04  -0.1088121415E-04   0.0000000000E+00   0.0000000000E+00   0.2871646785E-01  -0.4859848538E-03   0.0000000000E+00  -0.8401210617E-03
   0.3500999940E+00   0.2211456209E+00   0.1000000000E-03  -0.8234059863E-05   0.0000000000E+00   0.0000000000E+00   0.2844035438E-01   0.1613082594E-03   0.0000000000E+00   0.2872692756E-06
   0.3247710761E+00   0.2155904208E+00   0.9289312402E-04  -0.7894245913E-05   0.0000000000E+00   0.0000000000E+00   0.2819012867E-01   0.2000504574E-03   0.0000000000E+00  -0.3013874109E-03
   0.2679074181E+00   0.2246042289E+00   0.7621205540E-04  -0.9974054268E-05   0.0000000000E+00   0.0000000000E+00   0.2957294171E-01   0.3548931095E-04   0.0000000000E+00  -0.5896964091E-03
   0.2531622711E+00   0.2162221200E+00   0.7239607971E-04  -0.9882039776E-05   0.0000000000E+00   0.0000000000E+00   0.2922400075E-01  -0.4950639197E-05   0.0000000000E+00  -0.7833411360E-03
   0.2579699849E+00   0.2246374061E+00   0.7326393484E-04  -0.1039888997E-04   0.0000000000E+00   0.0000000000E+00   0.2975663544E-01   0.1620722339E-04   0.0000000000E+00  -0.6088013948E-03
   0.2481547727E+00   0.2246687306E+00   0.7033170703E-04  -0.1088844476E-04   0.0000000000E+00   0.0000000000E+00   0.2996365625E-01  -0.2382230352E-04   0.0000000000E+00  -0.6051138013E-03
   0.1166507517E+00   0.2162060859E+00   0.3130667366E-04  -0.2593108493E-04   0.0000000000E+00   0.0000000000E+00   0.2951110867E-01  -0.6318718835E-03   0.0000000000E+00   0.2288356669E-02
   0.1215295905E+00   0.2246546625E+00   0.3163145354E-04  -0.2582049334E-04   0.0000000000E+00   0.0000000000E+00   0.2966918471E-01  -0.4323625388E-03   0.0000000000E+00   0.1743913826E-02
   0.1117934013E+00   0.2246487726E+00   0.2876128549E-04  -0.2762738249E-04   0.0000000000E+00   0.0000000000E+00   0.2905380699E-01  -0.3748446422E-03   0.0000000000E+00   0.1990103509E-02
   0.1054188937E+00   0.6683890560E-01   0.6190273153E-04  -0.9759903914E-05   0.0000000000E+00   0.0000000000E+00   0.1329817299E-01  -0.6206325931E-02   0.0000000000E+00  -0.5953043520E-02
   0.8240687506E-01   0.2243108921E+00   0.2047075599E-04  -0.3315286352E-04   0.0000000000E+00   0.0000000000E+00   0.2744979459E-01  -0.1314690801E-03   0.0000000000E+00   0.2537342651E-02
   0.1457975984E+00   0.1992580171E+00   0.4227741769E-04  -0.1910087826E-04   0.0000000000E+00   0.0000000000E+00   0.2988319611E-01  -0.1379224041E-02   0.0000000000E+00   0.1269324953E-02
   0.1356937695E+00   0.1823335323E+00   0.4143651361E-04  -0.1896574946E-04   0.0000000000E+00   0.0000000000E+00   0.2997907789E-01  -0.2251560579E-02   0.0000000000E+00   0.1436106572E-02
   0.1506057433E+00   0.1907446719E+00   0.4484234769E-04  -0.1744610304E-04   0.0000000000E+00   0.0000000000E+00   0.2960555790E-01  -0.1738458314E-02   0.0000000000E+00   0.8706896279E-03
   0.1407456759E+00   0.1907957689E+00   0.4184890828E-04  -0.1903913309E-04   0.0000000000E+00   0.0000000000E+00   0.2992725460E-01  -0.1806737173E-02   0.0000000000E+00   0.1350604756E-02
   0.1455538547E+00   0.1822824843E+00   0.4444770361E-04  -0.1732368866E-04   0.0000000000E+00   0.0000000000E+00   0.2965346313E-01  -0.2157741668E-02   0.0000000000E+00   0.9397475265E-03
   0.2199000340E+00   0.2688970173E-01   0.8302104298E-04  -0.1700721126E-06   0.0000000000E+00   0.0000000000E+00   0.1163333802E-01   0.2468868569E-02   0.0000000000E+00  -0.1885904629E-02
   0.2041057102E+00   0.3564713717E-01   0.8071021745E-04  -0.3780273833E-06   0.0000000000E+00   0.0000000000E+00   0.1132095468E-01   0.1604931109E-02   0.0000000000E+00  -0.2936615640E-02
   0.1935997369E+00   0.3550955509E-01   0.7960793480E-04  -0.4708116405E-06   0.0000000000E+00   0.0000000000E+00   0.1066209997E-01   0.1018493754E-02   0.0000000000E+00  -0.3300321553E-02
   0.1883966774E+00   0.2660169507E-01   0.7988541916E-04  -0.3422318862E-06   0.0000000000E+00   0.0000000000E+00   0.9313377378E-02   0.9502987644E-03   0.0000000000E+00  -0.2687924497E-02
   0.1989025069E+00   0.2673925892E-01   0.8085794556E-04  -0.2675831554E-06   0.0000000000E+00   0.0000000000E+00   0.1010642777E-01   0.1554353381E-02   0.0000000000E+00  -0.2408775949E-02
   0.1750046412E+00   0.1821889896E+00   0.5322218638E-04  -0.1317043412E-04   0.0000000000E+00   0.0000000000E+00   0.2869357016E-01  -0.1668305823E-02   0.0000000000E+00  -0.3308741043E-03
   0.1652909674E+00   0.1992098957E+00   0.4816144359E-04  -0.1617034651E-04   0.0000000000E+00   0.0000000000E+00   0.2963908689E-01  -0.1201642282E-02   0.0000000000E+00   0.4490532658E-03
   0.1652092994E+00   0.1822102059E+00   0.5034243689E-04  -0.1442506619E-04   0.0000000000E+00   0.0000000000E+00   0.2900576217E-01  -0.1868822741E-02   0.0000000000E+00   0.5137362378E-04
   0.1701478070E+00   0.1906994671E+00   0.5069401778E-04  -0.1465387220E-04   0.0000000000E+00   0.0000000000E+00   0.2915795429E-01  -0.1462616193E-02   0.0000000000E+00   0.6463955250E-04
   0.1603524103E+00   0.1907205993E+00   0.4777426717E-04  -0.1599272011E-04   0.0000000000E+00   0.0000000000E+00   0.2949782645E-01  -0.1606068212E-02   0.0000000000E+00   0.4595174308E-03
   0.1847715629E+00   0.1991933385E+00   0.5396690285E-04  -0.1371447935E-04   0.0000000000E+00   0.0000000000E+00   0.2930034353E-01  -0.9294682148E-03   0.0000000000E+00  -0.2133232836E-03
   0.1750312675E+00   0.1992016766E+00   0.5107448885E-04  -0.1488338718E-04   0.0000000000E+00   0.0000000000E+00   0.2948444921E-01  -0.1060497319E-02   0.0000000000E+00   0.1061038325E-03
   0.1799064292E+00   0.2076778700E+00   0.5150020490E-04  -0.1511104754E-04   0.0000000000E+00   0.0000000000E+00   0.2979464620E-01  -0.7612935583E-03   0.0000000000E+00   0.3967667535E-04
   0.1701660923E+00   0.2076861359E+00   0.4856532471E-04  -0.1635212685E-04   0.0000000000E+00   0.0000000000E+00   0.2997385880E-01  -0.8506075612E-03   0.0000000000E+00   0.3520486748E-03
   0.1935961244E+00   0.5329203910E-01   0.7759044525E-04  -0.9803952943E-06   0.0000000000E+00   0.0000000000E+00   0.1290372517E-01   0.3092789885E-03   0.0000000000E+00  -0.4329102758E-02
   0.2145678829E+00   0.5363455670E-01   0.8030091318E-04  -0.6865989908E-06   0.0000000000E+00   0.0000000000E+00   0.1377807950E-01   0.1444986421E-02   0.0000000000E+00  -0.3469248640E-02
   0.1988510535E+00   0.4446963855E-01   0.7927846433E-04  -0.6269526244E-06   0.0000000000E+00   0.0000000000E+00   0.1206873975E-01   0.9604237714E-03   0.0000000000E+00  -0.3607288654E-02
   0.2093368031E+00   0.4464086187E-01   0.8051207648E-04  -0.5174257932E-06   0.0000000000E+00   0.0000000000E+00   0.1250700358E-01   0.1497237762E-02   0.0000000000E+00  -0.3231442574E-02
   0.2040819967E+00   0.5346331330E-01   0.7893065889E-04  -0.8162980250E-06   0.0000000000E+00   0.0000000000E+00   0.1340208214E-01   0.8951275135E-03   0.0000000000E+00  -0.3890399772E-02
   0.1993795735E+00   0.2076831660E+00   0.5732049434E-04  -0.1297402200E-04   0.0000000000E+00   0.0000000000E+00   0.2953553558E-01  -0.5393741792E-03   0.0000000000E+00  -0.4399357705E-03
   0.1896386428E+00   0.2076752834E+00   0.5441781737E-04  -0.1398660623E-04   0.0000000000E+00   0.0000000000E+00   0.2974045446E-01  -0.6370025752E-03   0.0000000000E+00  -0.2160688447E-03
   0.1945124595E+00   0.1992012607E+00   0.5683548655E-04  -0.1266133958E-04   0.0000000000E+00   0.0000000000E+00   0.2911530809E-01  -0.7763326099E-03   0.0000000000E+00  -0.4623354939E-03
   0.2434557245E+00   0.1993356998E+00   0.7088648240E-04  -0.8920214752E-05   0.0000000000E+00   0.0000000000E+00   0.2812859292E-01  -0.9860248218E-04   0.0000000000E+00  -0.1086568023E-02
   0.2336106689E+00   0.1993019167E+00   0.6810686988E-04  -0.9488349477E-05   0.0000000000E+00   0.0000000000E+00   0.2831864314E-01  -0.2223910031E-03   0.0000000000E+00  -0.1038598012E-02
   0.2384617006E+00   0.2077716491E+00   0.6876656722E-04  -0.9933878422E-05   0.0000000000E+00   0.0000000000E+00   0.2885400240E-01  -0.1275607052E-03   0.0000000000E+00  -0.9022402683E-03
   0.2286165577E+00   0.2077378097E+00   0.6591472975E-04  -0.1055834784E-04   0.0000000000E+00   0.0000000000E+00   0.2905645644E-01  -0.2064517676E-03   0.0000000000E+00  -0.8454835957E-03
   0.2383073901E+00   0.2246614460E+00   0.6737209942E-04  -0.1145296675E-04   0.0000000000E+00   0.0000000000E+00   0.3015112486E-01  -0.4939064316E-04   0.0000000000E+00  -0.5805614650E-03
   0.5024807807E-01   0.1848901621E+00   0.1476236835E-04  -0.3560289261E-04   0.0000000000E+00   0.0000000000E+00   0.3056797197E-01   0.1630863427E-02   0.0000000000E+00   0.3713612625E-02
   0.4199577020E-01   0.1895526693E+00   0.1202790116E-04  -0.3718865218E-04   0.0000000000E+00   0.0000000000E+00   0.2984098440E-01   0.1952496306E-02   0.0000000000E+00   0.3203684587E-02
   0.4202772301E-01   0.1799211858E+00   0.1259140673E-04  -0.3651724180E-04   0.0000000000E+00   0.0000000000E+00   0.3117858149E-01   0.2515527702E-02   0.0000000000E+00   0.3334256831E-02
   0.2917186367E-01   0.2499573948E+00   0.5194972480E-05  -0.4260521695E-04   0.0000000000E+00   0.0000000000E+00   0.1855179491E-01  -0.3758692239E-04   0.0000000000E+00   0.3076287257E-04
   0.3434434504E-01   0.2249565906E+00   0.8068635399E-05  -0.4054241540E-04   0.0000000000E+00   0.0000000000E+00   0.2418725519E-01   0.5955303630E-03   0.0000000000E+00   0.1743193931E-02
   0.4958551005E-01   0.1931564219E+00   0.1402194910E-04  -0.3632806807E-04   0.0000000000E+00   0.0000000000E+00   0.2945517321E-01   0.1388484092E-02   0.0000000000E+00   0.3520658556E-02
   0.8728106854E-01   0.2158650005E+00   0.2280414483E-04  -0.3151648286E-04   0.0000000000E+00   0.0000000000E+00   0.2831868668E-01  -0.2456302974E-03   0.0000000000E+00   0.3040006625E-02
   0.1263871347E+00   0.2162073266E+00   0.3421370565E-04  -0.2413840080E-04   0.0000000000E+00   0.0000000000E+00   0.2982388480E-01  -0.6459423361E-03   0.0000000000E+00   0.1942175876E-02
   0.1068945993E+00   0.2161537707E+00   0.2843332295E-04  -0.2777533203E-04   0.0000000000E+00   0.0000000000E+00   0.2917615760E-01  -0.5180078234E-03   0.0000000000E+00   0.2589022579E-02
   0.2630996819E+00   0.2161889836E+00   0.7529190056E-04  -0.9431373974E-05   0.0000000000E+00   0.0000000000E+00   0.2903766290E-01   0.3549704472E-04   0.0000000000E+00  -0.7659476896E-03
   0.2433149626E+00   0.2162148678E+00   0.6950959827E-04  -0.1039815988E-04   0.0000000000E+00   0.0000000000E+00   0.2941138926E-01  -0.5864082712E-04   0.0000000000E+00  -0.7626591110E-03
   0.3157372408E+00   0.1729772488E+00   0.9148679703E-04  -0.4788217026E-05   0.0000000000E+00   0.0000000000E+00   0.2511934588E-01   0.8411904250E-03   0.0000000000E+00  -0.7019885722E-03
   0.3157087628E+00   0.1826757753E+00   0.9120177094E-04  -0.5457669937E-05   0.0000000000E+00   0.0000000000E+00   0.2586372191E-01   0.6605380973E-03   0.0000000000E+00  -0.6413788911E-03
   0.3244717443E+00   0.1777845690E+00   0.9355225321E-04  -0.5030013151E-05   0.0000000000E+00   0.0000000000E+00   0.2545813996E-01   0.7889444544E-03   0.0000000000E+00  -0.5084080165E-03
   0.2980412182E+00   0.2240788558E+00   0.8504917782E-04  -0.9023238729E-05   0.0000000000E+00   0.0000000000E+00   0.2901633066E-01   0.1050033055E-03   0.0000000000E+00  -0.4538478033E-03
   0.2766036291E-01   0.1184690887E+00   0.1397030850E-04  -0.3463827559E-04   0.0000000000E+00   0.0000000000E+00   0.4941244205E-01   0.7358273186E-02   0.0000000000E+00  -0.2601684965E-02
   0.2984124067E+00   0.1763048167E-01   0.9294773763E-04  -0.1902730446E-07   0.0000000000E+00   0.0000000000E+00   0.1455837871E-01   0.4198861157E-02   0.0000000000E+00  -0.3949371113E-03
   0.2880513902E+00   0.1779610211E-01   0.9157619610E-04  -0.2319351455E-07   0.0000000000E+00   0.0000000000E+00   0.1435344093E-01   0.4102593254E-02   0.0000000000E+00  -0.4912026781E-03
   0.2930020489E+00   0.8815242773E-02   0.9230794514E-04  -0.7586607161E-08   0.0000000000E+00   0.0000000000E+00   0.1430441610E-01   0.4174940378E-02   0.0000000000E+00  -0.2166586348E-03
   0.3084277015E+00   0.0000000000E+00   0.9436452620E-04   0.0000000000E+00   0.0000000000E+00   0.0000000000E+00   0.1458898252E-01   0.4341596705E-02   0.0000000000E+00   0.4594058990E-05
   0.2980096391E+00   0.0000000000E+00   0.9298807049E-04   0.0000000000E+00   0.0000000000E+00   0.0000000000E+00   0.1440892127E-01   0.4274844591E-02   0.0000000000E+00  -0.8708321110E-06
   0.3034200778E+00   0.8815244199E-02   0.9367979597E-04  -0.6160572826E-08   0.0000000000E+00   0.0000000000E+00   0.1454944168E-01   0.4264307916E-02   0.0000000000E+00  -0.1789529904E-03
   0.3071404481E+00   0.1679272559E-01   0.9412410096E-04  -0.1510692137E-07   0.0000000000E+00   0.0000000000E+00   0.1474086753E-01   0.4276716008E-02   0.0000000000E+00  -0.3100545067E-03
   0.3121481101E+00   0.7977484890E-02   0.9484710055E-04  -0.4489969292E-08   0.0000000000E+00   0.0000000000E+00   0.1469201501E-01   0.4332842878E-02   0.0000000000E+00  -0.1294783562E-03
   0.2514358498E+00   0.2703842502E-01   0.8669875689E-04  -0.9327782156E-07   0.0000000000E+00   0.0000000000E+00   0.1336653924E-01   0.3370236552E-02   0.0000000000E+00  -0.1268245147E-02
   0.2660526840E+00   0.6956140224E-01   0.8656701014E-04  -0.6305626945E-06   0.0000000000E+00   0.0000000000E+00   0.1653054784E-01   0.2672735528E-02   0.0000000000E+00  -0.2131357723E-02
   0.2468726529E+00   0.7419908629E-01   0.8318285718E-04  -0.9180095456E-06   0.0000000000E+00   0.0000000000E+00   0.1667087980E-01   0.1992795010E-02   0.0000000000E+00  -0.2794887473E-02
   0.2654272634E+00   0.7801207825E-01   0.8592238809E-04  -0.8501463385E-06   0.0000000000E+00   0.0000000000E+00   0.1724649467E-01   0.2386297881E-02   0.0000000000E+00  -0.2238481746E-02
   0.2558372022E+00   0.8033091141E-01   0.8416219050E-04  -0.1010186306E-05   0.0000000000E+00   0.0000000000E+00   0.1734721442E-01   0.2078533675E-02   0.0000000000E+00  -0.2549134229E-02
   0.2564626809E+00   0.7188025831E-01   0.8489494069E-04  -0.7602941129E-06   0.0000000000E+00   0.0000000000E+00   0.1659153775E-01   0.2338612644E-02   0.0000000000E+00  -0.2456487049E-02
   0.2093770153E+00   0.2677857966E-01   0.8190633821E-04  -0.2114364213E-06   0.0000000000E+00   0.0000000000E+00   0.1100061865E-01   0.2058116517E-02   0.0000000000E+00  -0.2132823838E-02
   0.2146287941E+00   0.3575828415E-01   0.8187513888E-04  -0.3080495154E-06   0.0000000000E+00   0.0000000000E+00   0.1205143800E-01   0.2069483698E-02   0.0000000000E+00  -0.2610059348E-02
   0.1721884866E+00   0.5294417351E-01   0.7494861292E-04  -0.1485091907E-05   0.0000000000E+00   0.0000000000E+00   0.1189862877E-01  -0.1265786593E-02   0.0000000000E+00  -0.5310542740E-02
   0.1828922829E+00   0.5311814036E-01   0.7625391288E-04  -0.1198643643E-05   0.0000000000E+00   0.0000000000E+00   0.1246744587E-01  -0.4568167075E-03   0.0000000000E+00  -0.4812096553E-02
   0.1776413366E+00   0.4415812878E-01   0.7692462309E-04  -0.9669195152E-06   0.0000000000E+00   0.0000000000E+00   0.1076138928E-01  -0.4684436643E-03   0.0000000000E+00  -0.4455291740E-02
   0.1883449886E+00   0.4433200456E-01   0.7808561117E-04  -0.7716417708E-06   0.0000000000E+00   0.0000000000E+00   0.1128456759E-01   0.3179880230E-03   0.0000000000E+00  -0.4035860779E-02
   0.2324799719E+00   0.8725788818E-01   0.7952494788E-04  -0.1613018501E-05   0.0000000000E+00   0.0000000000E+00   0.1793602233E-01   0.1011686268E-02   0.0000000000E+00  -0.3355677958E-02
   0.2148085294E+00   0.8963560277E-01   0.7607635968E-04  -0.2146128776E-05   0.0000000000E+00   0.0000000000E+00   0.1828159734E-01   0.7879313461E-04   0.0000000000E+00  -0.3950790743E-02
   0.2246839824E+00   0.7173441184E-01   0.7988236173E-04  -0.1126658740E-05   0.0000000000E+00   0.0000000000E+00   0.1611265718E-01   0.1217724461E-02   0.0000000000E+00  -0.3532708688E-02
   0.2236442638E+00   0.8844677086E-01   0.7782076676E-04  -0.1857942075E-05   0.0000000000E+00   0.0000000000E+00   0.1807546002E-01   0.5402113355E-03   0.0000000000E+00  -0.3651983163E-02
   0.2197463311E+00   0.8068506230E-01   0.7806214213E-04  -0.1581403866E-05   0.0000000000E+00   0.0000000000E+00   0.1719580752E-01   0.6518526202E-03   0.0000000000E+00  -0.3744778712E-02
   0.2285819578E+00   0.7949615674E-01   0.7968384093E-04  -0.1359459936E-05   0.0000000000E+00   0.0000000000E+00   0.1701752163E-01   0.1102556554E-02   0.0000000000E+00  -0.3445546464E-02
   0.2357593501E+00   0.5426836423E-01   0.8313613426E-04  -0.5062666928E-06   0.0000000000E+00   0.0000000000E+00   0.1456268520E-01   0.2276685551E-02   0.0000000000E+00  -0.2736472041E-02
   0.2251635936E+00   0.5395147008E-01   0.8170264371E-04  -0.5868211291E-06   0.0000000000E+00   0.0000000000E+00   0.1423122475E-01   0.1878431323E-02   0.0000000000E+00  -0.3094642374E-02
   0.2198600087E+00   0.4475202550E-01   0.8179874739E-04  -0.4306967901E-06   0.0000000000E+00   0.0000000000E+00   0.1314313158E-01   0.1968199321E-02   0.0000000000E+00  -0.2863968469E-02
   0.2304556378E+00   0.4506890415E-01   0.8311981140E-04  -0.3656501266E-06   0.0000000000E+00   0.0000000000E+00   0.1353363294E-01   0.2350081764E-02   0.0000000000E+00  -0.2543778929E-02
   0.1572258789E+00   0.2626327027E-01   0.7748789262E-04  -0.8012256929E-06   0.0000000000E+00   0.0000000000E+00   0.5899727217E-02  -0.1825919085E-02   0.0000000000E+00  -0.3565067236E-02
   0.3188457828E+00   0.0000000000E+00   0.9575883778E-04   0.0000000000E+00   0.0000000000E+00   0.0000000000E+00   0.1478942344E-01   0.4400162973E-02   0.0000000000E+00   0.8821878230E-05
   0.3068415562E+00   0.5399913280E-01   0.9346417655E-04  -0.2278990839E-06   0.0000000000E+00   0.0000000000E+00   0.1608498313E-01   0.3708195146E-02   0.0000000000E+00  -0.8735428565E-03
   0.3049610782E+00   0.2672366911E-01   0.9372115093E-04  -0.3988518021E-07   0.0000000000E+00   0.0000000000E+00   0.1490912417E-01   0.4132989430E-02   0.0000000000E+00  -0.4978411670E-03
   0.7470294779E-01   0.1106285051E+00   0.3570268817E-04  -0.2287588279E-04   0.0000000000E+00   0.0000000000E+00   0.3498287055E-01  -0.1685979376E-02   0.0000000000E+00  -0.2861181181E-02
   0.6516015850E-01   0.1062013461E+00   0.3397789961E-04  -0.2503892293E-04   0.0000000000E+00   0.0000000000E+00   0.3674975952E-01   0.1075318162E-02   0.0000000000E+00  -0.5352863635E-02
   0.7401984748E-01   0.9987621201E-01   0.3970978323E-04  -0.2187298682E-04   0.0000000000E+00   0.0000000000E+00   0.3135856834E-01  -0.6344327672E-03   0.0000000000E+00  -0.5462281156E-02
   0.8414119660E-01   0.9270458897E-01   0.4595700277E-04  -0.1819952809E-04   0.0000000000E+00   0.0000000000E+00   0.2766640094E-01  -0.2015551057E-02   0.0000000000E+00  -0.6669272176E-02
   0.1262833479E+00   0.1993377923E+00   0.3634394628E-04  -0.2247371711E-04   0.0000000000E+00   0.0000000000E+00   0.2998140519E-01  -0.1378449370E-02   0.0000000000E+00   0.2167857142E-02
   0.1158689251E+00   0.1827182923E+00   0.3526308347E-04  -0.2263466212E-04   0.0000000000E+00   0.0000000000E+00   0.3050600751E-01  -0.2070222407E-02   0.0000000000E+00   0.2485925673E-02
   0.1309885449E+00   0.1908356559E+00   0.3886892440E-04  -0.2072605238E-04   0.0000000000E+00   0.0000000000E+00   0.2997179819E-01  -0.1812077839E-02   0.0000000000E+00   0.1806252966E-02
   0.1210761371E+00   0.1910280310E+00   0.3580814069E-04  -0.2255800655E-04   0.0000000000E+00   0.0000000000E+00   0.3022515935E-01  -0.1747163786E-02   0.0000000000E+00   0.2315779293E-02
   0.1257813633E+00   0.1825259562E+00   0.3836126500E-04  -0.2074883752E-04   0.0000000000E+00   0.0000000000E+00   0.3024514391E-01  -0.2160067622E-02   0.0000000000E+00   0.1963785625E-02
   0.1170556862E+00   0.6837766150E-01   0.6320523300E-04  -0.7522297836E-05   0.0000000000E+00   0.0000000000E+00   0.1484437548E-01  -0.6654584872E-02   0.0000000000E+00  -0.6754756768E-02
   0.1135176758E+00   0.5836251045E-01   0.6622475363E-04  -0.7133553287E-05   0.0000000000E+00   0.0000000000E+00   0.1072578276E-01  -0.6550633562E-02   0.0000000000E+00  -0.6202498900E-02
   0.1487487898E+00   0.5215123426E-01   0.7228976207E-04  -0.2487242564E-05   0.0000000000E+00   0.0000000000E+00   0.1052421050E-01  -0.3571062634E-02   0.0000000000E+00  -0.6290906495E-02
   0.1555353294E+00   0.4344659554E-01   0.7476340570E-04  -0.1614262952E-05   0.0000000000E+00   0.0000000000E+00   0.9041912821E-02  -0.2567303043E-02   0.0000000000E+00  -0.5262800661E-02
   0.1672549506E+00   0.4384296062E-01   0.7587264252E-04  -0.1217681577E-05   0.0000000000E+00   0.0000000000E+00   0.9804248062E-02  -0.1327992694E-02   0.0000000000E+00  -0.4904882583E-02
   0.1604686214E+00   0.5254778818E-01   0.7359538146E-04  -0.1901816824E-05   0.0000000000E+00   0.0000000000E+00   0.1131481888E-01  -0.2394876069E-02   0.0000000000E+00  -0.5800389580E-02
   0.1214670494E+00   0.2077719271E+00   0.3382140919E-04  -0.2421485077E-04   0.0000000000E+00   0.0000000000E+00   0.2972937325E-01  -0.9950036187E-03   0.0000000000E+00   0.2238262362E-02
   0.1117272482E+00   0.2078331760E+00   0.3089323914E-04  -0.2605695566E-04   0.0000000000E+00   0.0000000000E+00   0.2967058857E-01  -0.9154291845E-03   0.0000000000E+00   0.2628052069E-02
   0.1165435171E+00   0.1993990641E+00   0.3337908652E-04  -0.2429390373E-04   0.0000000000E+00   0.0000000000E+00   0.2996123342E-01  -0.1241153295E-02   0.0000000000E+00   0.2597190244E-02
   0.8482407091E-01   0.1034568125E+00   0.4173131191E-04  -0.1926448470E-04   0.0000000000E+00   0.0000000000E+00   0.3142948785E-01  -0.3354642351E-02   0.0000000000E+00  -0.4056213716E-02
   0.3527073728E-01   0.1447645906E+00   0.1306247510E-04  -0.3523843840E-04   0.0000000000E+00   0.0000000000E+00   0.3817530165E-01   0.4940227032E-02   0.0000000000E+00   0.2173663463E-02
   0.3650985459E-01   0.1233632037E+00   0.1685868934E-04  -0.3349832185E-04   0.0000000000E+00   0.0000000000E+00   0.4455361028E-01   0.5236951373E-02   0.0000000000E+00  -0.1187201732E-02
   0.3040082325E+00   0.2145557193E+00   0.8706946532E-04  -0.8097695124E-05   0.0000000000E+00   0.0000000000E+00   0.2829917695E-01   0.1778369018E-03   0.0000000000E+00  -0.5238680249E-03
   0.4265303499E-01   0.1702738777E+00   0.1340689413E-04  -0.3575526386E-04   0.0000000000E+00   0.0000000000E+00   0.3273478531E-01   0.2816727448E-02   0.0000000000E+00   0.3335915475E-02
   0.5087345461E-01   0.1752429318E+00   0.1564241258E-04  -0.3476317988E-04   0.0000000000E+00   0.0000000000E+00   0.3194130640E-01   0.1892601767E-02   0.0000000000E+00   0.3754491027E-02
   0.7063120189E-01   0.1572290793E+00   0.2392709243E-04  -0.2925271326E-04   0.0000000000E+00   0.0000000000E+00   0.3380416904E-01  -0.1889185488E-03   0.0000000000E+00   0.3500395792E-02
   0.6106499761E-01   0.1614122927E+00   0.2020771280E-04  -0.3168628588E-04   0.0000000000E+00   0.0000000000E+00   0.3372899691E-01   0.9633947318E-03   0.0000000000E+00   0.3635597001E-02
   0.6224725341E-01   0.1511039031E+00   0.2187061152E-04  -0.3046894581E-04   0.0000000000E+00   0.0000000000E+00   0.3493374248E-01   0.7914192339E-03   0.0000000000E+00   0.3069461388E-02
   0.8500743335E-01   0.1702321316E+00   0.2704984609E-04  -0.2753743023E-04   0.0000000000E+00   0.0000000000E+00   0.3201781401E-01  -0.1244651201E-02   0.0000000000E+00   0.3560313851E-02
   0.8063537821E-01   0.1853250472E+00   0.2400020529E-04  -0.2998977518E-04   0.0000000000E+00   0.0000000000E+00   0.3073789169E-01  -0.5332178983E-03   0.0000000000E+00   0.3860826324E-02
   0.6748203499E-01   0.1766691554E+00   0.2074549088E-04  -0.3179460663E-04   0.0000000000E+00   0.0000000000E+00   0.3167164864E-01   0.3445807589E-03   0.0000000000E+00   0.4025415460E-02
   0.8282136043E-01   0.1777785705E+00   0.2547973187E-04  -0.2879045344E-04   0.0000000000E+00   0.0000000000E+00   0.3137379236E-01  -0.8165584316E-03   0.0000000000E+00   0.3722019047E-02
   0.7405872171E-01   0.1809971025E+00   0.2239171296E-04  -0.3089148128E-04   0.0000000000E+00   0.0000000000E+00   0.3112829386E-01  -0.1466157568E-03   0.0000000000E+00   0.3902484538E-02
   0.7624469859E-01   0.1734505902E+00   0.2385838796E-04  -0.2971177159E-04   0.0000000000E+00   0.0000000000E+00   0.3193820910E-01  -0.4528276705E-03   0.0000000000E+00   0.3813235151E-02
   0.2936919158E+00   0.2663940447E-01   0.9219083388E-04  -0.4582986105E-07   0.0000000000E+00   0.0000000000E+00   0.1470669975E-01   0.4035268374E-02   0.0000000000E+00  -0.6396119090E-03
   0.3066415113E+00   0.6246101612E-01   0.9321432228E-04  -0.3376787413E-06   0.0000000000E+00   0.0000000000E+00   0.1655071059E-01   0.3501491088E-02   0.0000000000E+00  -0.9816662511E-03
   0.3071062820E+00   0.7216535585E-01   0.9300895047E-04  -0.4984472613E-06   0.0000000000E+00   0.0000000000E+00   0.1717676185E-01   0.3281870112E-02   0.0000000000E+00  -0.1040315786E-02
   0.9662922174E-01   0.1838386916E+00   0.2912883778E-04  -0.2658737624E-04   0.0000000000E+00   0.0000000000E+00   0.3077797865E-01  -0.1413416941E-02   0.0000000000E+00   0.3389795249E-02
   0.1062490740E+00   0.1832785171E+00   0.3219601830E-04  -0.2458593207E-04   0.0000000000E+00   0.0000000000E+00   0.3066254603E-01  -0.1740178143E-02   0.0000000000E+00   0.2959412146E-02
   0.1113362743E+00   0.1910892539E+00   0.3281030198E-04  -0.2442711596E-04   0.0000000000E+00   0.0000000000E+00   0.3019304750E-01  -0.1563759815E-02   0.0000000000E+00   0.2748194235E-02
   0.1017164707E+00   0.1916494888E+00   0.2979168198E-04  -0.2638316480E-04   0.0000000000E+00   0.0000000000E+00   0.3030333079E-01  -0.1320745923E-02   0.0000000000E+00   0.3178907178E-02
   0.2988904685E+00   0.1627471513E+00   0.8773553931E-04  -0.4344702225E-05   0.0000000000E+00   0.0000000000E+00   0.2441829024E-01   0.9064771519E-03   0.0000000000E+00  -0.1100233068E-02
   0.2974251116E+00   0.1728722096E+00   0.8692360507E-04  -0.5042403071E-05   0.0000000000E+00   0.0000000000E+00   0.2524135151E-01   0.7037573148E-03   0.0000000000E+00  -0.1032939719E-02
   0.3073138203E+00   0.1678622138E+00   0.8957626879E-04  -0.4552151533E-05   0.0000000000E+00   0.0000000000E+00   0.2477435853E-01   0.8834553047E-03   0.0000000000E+00  -0.8973545325E-03
   0.3058485060E+00   0.1779872645E+00   0.8883800776E-04  -0.5258514130E-05   0.0000000000E+00   0.0000000000E+00   0.2558893427E-01   0.6926604732E-03   0.0000000000E+00  -0.8371894396E-03
   0.3245212571E+00   0.1681925532E+00   0.9377206926E-04  -0.4392820554E-05   0.0000000000E+00   0.0000000000E+00   0.2470039698E-01   0.9848624262E-03   0.0000000000E+00  -0.5423270805E-03
   0.3077945107E+00   0.2070656438E+00   0.8836372209E-04  -0.7419231926E-05   0.0000000000E+00   0.0000000000E+00   0.2775261627E-01   0.2799688721E-03   0.0000000000E+00  -0.5629836149E-03
   0.2968252691E+00   0.2083302197E+00   0.8527406032E-04  -0.7728311339E-05   0.0000000000E+00   0.0000000000E+00   0.2795471078E-01   0.2281496984E-03   0.0000000000E+00  -0.6665919213E-03
   0.2832153076E+00   0.1692546708E+00   0.8355963535E-04  -0.5086199751E-05   0.0000000000E+00   0.0000000000E+00   0.2511168430E-01   0.6133807182E-03   0.0000000000E+00  -0.1303453779E-02
   0.2824116618E+00   0.1531967151E+00   0.8430776503E-04  -0.4044882806E-05   0.0000000000E+00   0.0000000000E+00   0.2378355777E-01   0.8736484209E-03   0.0000000000E+00  -0.1505467422E-02
   0.2828134928E+00   0.1612257133E+00   0.8392678146E-04  -0.4552733625E-05   0.0000000000E+00   0.0000000000E+00   0.2444326957E-01   0.7350757654E-03   0.0000000000E+00  -0.1404598621E-02
   0.2906510343E+00   0.1579719384E+00   0.8599025340E-04  -0.4182646107E-05   0.0000000000E+00   0.0000000000E+00   0.2410875914E-01   0.8990783745E-03   0.0000000000E+00  -0.1296737002E-02
   0.2910528991E+00   0.1660009292E+00   0.8567310184E-04  -0.4696810317E-05   0.0000000000E+00   0.0000000000E+00   0.2475945015E-01   0.7647435925E-03   0.0000000000E+00  -0.1204977399E-02
   0.3079916727E+00   0.1298358836E+00   0.9115468854E-04  -0.2389357750E-05   0.0000000000E+00   0.0000000000E+00   0.2163452943E-01   0.1748030967E-02   0.0000000000E+00  -0.1097350662E-02
   0.2040566188E+00   0.7157065474E-01   0.7664975466E-04  -0.1514959824E-05   0.0000000000E+00   0.0000000000E+00   0.1582432315E-01   0.1554566504E-03   0.0000000000E+00  -0.4346599390E-02
   0.2143703010E+00   0.7165255616E-01   0.7826602503E-04  -0.1301639276E-05   0.0000000000E+00   0.0000000000E+00   0.1598188645E-01   0.6903311230E-03   0.0000000000E+00  -0.3933698608E-02
   0.2093123606E+00   0.6260266158E-01   0.7858455781E-04  -0.1043024017E-05   0.0000000000E+00   0.0000000000E+00   0.1478377113E-01   0.8104298950E-03   0.0000000000E+00  -0.3899759944E-02
   0.2196259156E+00   0.6268450132E-01   0.8007457955E-04  -0.8914804672E-06   0.0000000000E+00   0.0000000000E+00   0.1492353264E-01   0.1309370997E-02   0.0000000000E+00  -0.3515376773E-02
   0.2993560388E+00   0.1440023527E+00   0.8868684364E-04  -0.3214295380E-05   0.0000000000E+00   0.0000000000E+00   0.2285655708E-01   0.1305210629E-02   0.0000000000E+00  -0.1235362306E-02
   0.3079240091E+00   0.1393136670E+00   0.9078409762E-04  -0.2862016955E-05   0.0000000000E+00   0.0000000000E+00   0.2241978109E-01   0.1513209596E-02   0.0000000000E+00  -0.1055233047E-02
   0.3163788777E+00   0.1441651573E+00   0.9249274631E-04  -0.3040696754E-05   0.0000000000E+00   0.0000000000E+00   0.2277230166E-01   0.1466346945E-02   0.0000000000E+00  -0.8336847643E-03
   0.3078109424E+00   0.1488538680E+00   0.9040043833E-04  -0.3382952366E-05   0.0000000000E+00   0.0000000000E+00   0.2321696525E-01   0.1286476518E-02   0.0000000000E+00  -0.1010081886E-02
   0.2817075589E+00   0.7700563149E-01   0.8866585112E-04  -0.7085124887E-06   0.0000000000E+00   0.0000000000E+00   0.1729652547E-01   0.2791178816E-02   0.0000000000E+00  -0.1769955258E-02
   0.2729292364E+00   0.6267446644E-01   0.8802143784E-04  -0.4508649021E-06   0.0000000000E+00   0.0000000000E+00   0.1612313299E-01   0.2998661352E-02   0.0000000000E+00  -0.1815667557E-02
   0.2807566453E+00   0.6639658621E-01   0.8904225369E-04  -0.4846938827E-06   0.0000000000E+00   0.0000000000E+00   0.1652243561E-01   0.3045137901E-02   0.0000000000E+00  -0.1663527699E-02
   0.2738800980E+00   0.7328351903E-01   0.8759298252E-04  -0.6673732846E-06   0.0000000000E+00   0.0000000000E+00   0.1693457748E-01   0.2743050511E-02   0.0000000000E+00  -0.1945915339E-02
   0.3074318051E+00   0.8178706559E-01   0.9276312637E-04  -0.6994067582E-06   0.0000000000E+00   0.0000000000E+00   0.1783168194E-01   0.3024261672E-02   0.0000000000E+00  -0.1105976232E-02
   0.2986629610E+00   0.7699742995E-01   0.9146395105E-04  -0.6250471498E-06   0.0000000000E+00   0.0000000000E+00   0.1745904074E-01   0.3046974208E-02   0.0000000000E+00  -0.1300672205E-02
   0.3160015769E+00   0.1633413254E+00   0.9183388408E-04  -0.4160610625E-05   0.0000000000E+00   0.0000000000E+00   0.2433687295E-01   0.1031282207E-02   0.0000000000E+00  -0.7499732751E-03
   0.1604349570E+00   0.2076929163E+00   0.4562296746E-04  -0.1770769294E-04   0.0000000000E+00   0.0000000000E+00   0.2994197876E-01  -0.9489117347E-03   0.0000000000E+00   0.6808956390E-03
   0.1506882660E+00   0.2077169534E+00   0.4266704811E-04  -0.1918162188E-04   0.0000000000E+00   0.0000000000E+00   0.3006968812E-01  -0.1008642884E-02   0.0000000000E+00   0.1066348595E-02
   0.1409605794E+00   0.2077332550E+00   0.3971644584E-04  -0.2076102579E-04   0.0000000000E+00   0.0000000000E+00   0.2993281583E-01  -0.1047720309E-02   0.0000000000E+00   0.1442153340E-02
   0.1282025217E+00   0.8319601117E-01   0.6044773800E-04  -0.7475933361E-05   0.0000000000E+00   0.0000000000E+00   0.1990645005E-01  -0.6058443375E-02   0.0000000000E+00  -0.6615029330E-02
   0.1283848852E+00   0.1031194391E+00   0.5461020367E-04  -0.9977907188E-05   0.0000000000E+00   0.0000000000E+00   0.2503292848E-01  -0.5927912458E-02   0.0000000000E+00  -0.4808900296E-02
   0.1143996024E+00   0.9387619265E-01   0.5372437892E-04  -0.1111404528E-04   0.0000000000E+00   0.0000000000E+00   0.2424239419E-01  -0.6235874358E-02   0.0000000000E+00  -0.5586174436E-02
   0.1282936243E+00   0.9315776344E-01   0.5744929045E-04  -0.8692156547E-05   0.0000000000E+00   0.0000000000E+00   0.2251225382E-01  -0.5913240673E-02   0.0000000000E+00  -0.5736017710E-02
   0.1213921675E+00   0.9849787211E-01   0.5409051571E-04  -0.1048589296E-04   0.0000000000E+00   0.0000000000E+00   0.2474856568E-01  -0.6075361022E-02   0.0000000000E+00  -0.5212788692E-02
   0.1213011675E+00   0.8853620430E-01   0.5719146956E-04  -0.9192603877E-05   0.0000000000E+00   0.0000000000E+00   0.2194168734E-01  -0.6250378163E-02   0.0000000000E+00  -0.6007931636E-02
   0.7384588866E-01   0.1911274639E+00   0.2136375749E-04  -0.3187406423E-04   0.0000000000E+00   0.0000000000E+00   0.3013000823E-01  -0.6735715922E-04   0.0000000000E+00   0.3834803779E-02
   0.6726923946E-01   0.1867995344E+00   0.1976255554E-04  -0.3274461699E-04   0.0000000000E+00   0.0000000000E+00   0.3053065126E-01   0.3617824429E-03   0.0000000000E+00   0.3961830991E-02
   0.2582861193E+00   0.2078494634E+00   0.7444729178E-04  -0.8920626641E-05   0.0000000000E+00   0.0000000000E+00   0.2850146242E-01   0.3168570799E-04   0.0000000000E+00  -0.9194211545E-03
   0.2483089576E+00   0.2077789283E+00   0.7160057810E-04  -0.9389692522E-05   0.0000000000E+00   0.0000000000E+00   0.2868311782E-01  -0.3124163416E-04   0.0000000000E+00  -0.9300303446E-03
   0.1945285164E+00   0.1822128506E+00   0.5884142267E-04  -0.1103537241E-04   0.0000000000E+00   0.0000000000E+00   0.2807495074E-01  -0.1191852023E-02   0.0000000000E+00  -0.9021771735E-03
   0.1896500580E+00   0.1907031095E+00   0.5641496101E-04  -0.1235254788E-04   0.0000000000E+00   0.0000000000E+00   0.2868095800E-01  -0.1091508323E-02   0.0000000000E+00  -0.5527641720E-03
   0.1798880821E+00   0.1906911694E+00   0.5356712583E-04  -0.1344460886E-04   0.0000000000E+00   0.0000000000E+00   0.2900635824E-01  -0.1266041963E-02   0.0000000000E+00  -0.2649534853E-03
   0.1847665973E+00   0.1822009787E+00   0.5605033958E-04  -0.1204432250E-04   0.0000000000E+00   0.0000000000E+00   0.2836824070E-01  -0.1434916148E-02   0.0000000000E+00  -0.6310234981E-03
   0.2537629905E+00   0.1824359658E+00   0.7507253190E-04  -0.7027230345E-05   0.0000000000E+00   0.0000000000E+00   0.2662833252E-01   0.5816158667E-04   0.0000000000E+00  -0.1397356156E-02
   0.2336570388E+00   0.1824687003E+00   0.6966980459E-04  -0.8043738630E-05   0.0000000000E+00   0.0000000000E+00   0.2704687431E-01  -0.2962373607E-03   0.0000000000E+00  -0.1407293363E-02
   0.2486093836E+00   0.1908858524E+00   0.7300562350E-04  -0.7946631923E-05   0.0000000000E+00   0.0000000000E+00   0.2737790824E-01  -0.4086025841E-04   0.0000000000E+00  -0.1241186920E-02
   0.2385563496E+00   0.1909022083E+00   0.7023859094E-04  -0.8473704766E-05   0.0000000000E+00   0.0000000000E+00   0.2759913813E-01  -0.1723218521E-03   0.0000000000E+00  -0.1239384091E-02
   0.2437100354E+00   0.1824523645E+00   0.7238442918E-04  -0.7496533416E-05   0.0000000000E+00   0.0000000000E+00   0.2682237758E-01  -0.1227343233E-03   0.0000000000E+00  -0.1412111084E-02
   0.2534328481E+00   0.1994062734E+00   0.7367905345E-04  -0.8426604852E-05   0.0000000000E+00   0.0000000000E+00   0.2794715641E-01  -0.2262119943E-05   0.0000000000E+00  -0.1080402990E-02
   0.1312034549E+00   0.2077731418E+00   0.3675790474E-04  -0.2244821023E-04   0.0000000000E+00   0.0000000000E+00   0.2997985095E-01  -0.1051016726E-02   0.0000000000E+00   0.1862574767E-02
   0.2920065192E+00   0.2002788584E+00   0.8427817301E-04  -0.7187562499E-05   0.0000000000E+00   0.0000000000E+00   0.2742631924E-01   0.2793079801E-03   0.0000000000E+00  -0.8158581832E-03
   0.2896806201E+00   0.1913574151E+00   0.8406210164E-04  -0.6545911104E-05   0.0000000000E+00   0.0000000000E+00   0.2678433390E-01   0.3821297688E-03   0.0000000000E+00  -0.9417090167E-03
   0.2882201525E+00   0.2077689152E+00   0.8289550143E-04  -0.7884801248E-05   0.0000000000E+00   0.0000000000E+00   0.2802319016E-01   0.2106569616E-03   0.0000000000E+00  -0.7548411329E-03
   0.1555442977E+00   0.1992340145E+00   0.4522673089E-04  -0.1757751497E-04   0.0000000000E+00   0.0000000000E+00   0.2978167354E-01  -0.1283492938E-02   0.0000000000E+00   0.8508003403E-03
   0.1360404830E+00   0.1992979547E+00   0.3931301896E-04  -0.2073734127E-04   0.0000000000E+00   0.0000000000E+00   0.2995738780E-01  -0.1370759893E-02   0.0000000000E+00   0.1717562125E-02
   0.1993908984E+00   0.1907109553E+00   0.5922744705E-04  -0.1137571119E-04   0.0000000000E+00   0.0000000000E+00   0.2850484690E-01  -0.8778310473E-03   0.0000000000E+00  -0.7861161149E-03
   0.2513399450E+00   0.1520019909E+00   0.7701202828E-04  -0.4844140333E-05   0.0000000000E+00   0.0000000000E+00   0.2415454566E-01   0.2442199518E-03   0.0000000000E+00  -0.2004315343E-02
   0.2345331710E+00   0.1494389738E+00   0.7319000564E-04  -0.5353192853E-05   0.0000000000E+00   0.0000000000E+00   0.2430615952E-01  -0.2236730854E-03   0.0000000000E+00  -0.2230683781E-02
   0.2481145801E+00   0.1359842993E+00   0.7771907094E-04  -0.3876653453E-05   0.0000000000E+00   0.0000000000E+00   0.2276971926E-01   0.3773887255E-03   0.0000000000E+00  -0.2367367997E-02
   0.2429365517E+00   0.1507204939E+00   0.7510168907E-04  -0.5079079144E-05   0.0000000000E+00   0.0000000000E+00   0.2421404718E-01   0.5352950610E-05   0.0000000000E+00  -0.2119559826E-02
   0.2413239298E+00   0.1427116852E+00   0.7550075163E-04  -0.4573762014E-05   0.0000000000E+00   0.0000000000E+00   0.2354402314E-01   0.7832062386E-04   0.0000000000E+00  -0.2298027287E-02
   0.2497272453E+00   0.1439931539E+00   0.7734826431E-04  -0.4351067107E-05   0.0000000000E+00   0.0000000000E+00   0.2346074495E-01   0.3017128560E-03   0.0000000000E+00  -0.2183207569E-02
   0.5865233544E-01   0.1909100424E+00   0.1683984463E-04  -0.3465863223E-04   0.0000000000E+00   0.0000000000E+00   0.2989382466E-01   0.9115713314E-03   0.0000000000E+00   0.3747145018E-02
   0.6905651800E-01   0.1669490803E+00   0.2223959661E-04  -0.3056072620E-04   0.0000000000E+00   0.0000000000E+00   0.3273909033E-01   0.1596242398E-03   0.0000000000E+00   0.3790185862E-02
   0.7781932809E-01   0.1637306179E+00   0.2549899367E-04  -0.2837509775E-04   0.0000000000E+00   0.0000000000E+00   0.3278488256E-01  -0.8477936893E-03   0.0000000000E+00   0.3450628066E-02
   0.6511652232E-01   0.1168686360E+00   0.3014272018E-04  -0.2617500831E-04   0.0000000000E+00   0.0000000000E+00   0.3790507593E-01   0.3948071666E-03   0.0000000000E+00  -0.1708845479E-02
   0.7635936536E-01   0.1347444546E+00   0.2967966124E-04  -0.2540240867E-04   0.0000000000E+00   0.0000000000E+00   0.3532028217E-01  -0.1640393879E-02   0.0000000000E+00   0.1458768177E-02
   0.6594478396E-01   0.1289267538E+00   0.2718775708E-04  -0.2729915800E-04   0.0000000000E+00   0.0000000000E+00   0.3694798862E-01  -0.3626803159E-04   0.0000000000E+00   0.4488771130E-03
   0.7553073053E-01   0.1226864834E+00   0.3226882847E-04  -0.2413155123E-04   0.0000000000E+00   0.0000000000E+00   0.3518503953E-01  -0.1736602399E-02   0.0000000000E+00  -0.4723534864E-03
   0.2570033374E+00   0.3617523808E-01   0.8705244583E-04  -0.1507231763E-06   0.0000000000E+00   0.0000000000E+00   0.1404373438E-01   0.3346873806E-02   0.0000000000E+00  -0.1538721787E-02
   0.2783516206E+00   0.3597111855E-01   0.8989962385E-04  -0.1094471808E-06   0.0000000000E+00   0.0000000000E+00   0.1468794750E-01   0.3730030421E-02   0.0000000000E+00  -0.1114432008E-02
   0.2833308811E+00   0.2680502089E-01   0.9080109538E-04  -0.5401087971E-07   0.0000000000E+00   0.0000000000E+00   0.1442560095E-01   0.3909629008E-02   0.0000000000E+00  -0.7719977416E-03
   0.2410171789E+00   0.4516248634E-01   0.8449085089E-04  -0.3106591420E-06   0.0000000000E+00   0.0000000000E+00   0.1404054018E-01   0.2694850222E-02   0.0000000000E+00  -0.2234360029E-02
   0.2140642991E+00   0.1823230929E+00   0.6431214978E-04  -0.9348072190E-05   0.0000000000E+00   0.0000000000E+00   0.2752236155E-01  -0.7180626892E-03   0.0000000000E+00  -0.1253477825E-02
   0.2042964315E+00   0.1822680162E+00   0.6159353458E-04  -0.1013977694E-04   0.0000000000E+00   0.0000000000E+00   0.2778258869E-01  -0.9598561096E-03   0.0000000000E+00  -0.1091325740E-02
   0.2091588325E+00   0.1907661079E+00   0.6201353795E-04  -0.1050812961E-04   0.0000000000E+00   0.0000000000E+00   0.2821302140E-01  -0.7029350853E-03   0.0000000000E+00  -0.9658256063E-03
   0.1935873813E+00   0.7150905182E-01   0.7500129515E-04  -0.1784681815E-05   0.0000000000E+00   0.0000000000E+00   0.1572101504E-01  -0.5459419505E-03   0.0000000000E+00  -0.4791980751E-02
   0.1883572572E+00   0.6236978414E-01   0.7560218799E-04  -0.1473558180E-05   0.0000000000E+00   0.0000000000E+00   0.1424845257E-01  -0.4657577866E-03   0.0000000000E+00  -0.4782553203E-02
   0.1988263380E+00   0.6243136315E-01   0.7709404018E-04  -0.1231446260E-05   0.0000000000E+00   0.0000000000E+00   0.1434879340E-01   0.2169778147E-03   0.0000000000E+00  -0.4348776365E-02
   0.2570754400E+00   0.5435180353E-01   0.8613997136E-04  -0.3793730738E-06   0.0000000000E+00   0.0000000000E+00   0.1517198174E-01   0.2894654755E-02   0.0000000000E+00  -0.2089596806E-02
   0.2516751497E+00   0.4520418751E-01   0.8591074166E-04  -0.2656899896E-06   0.0000000000E+00   0.0000000000E+00   0.1434064263E-01   0.2977902266E-02   0.0000000000E+00  -0.1951157897E-02
   0.2624037119E+00   0.4532288832E-01   0.8736587391E-04  -0.2302833879E-06   0.0000000000E+00   0.0000000000E+00   0.1473928028E-01   0.3227299760E-02   0.0000000000E+00  -0.1690825779E-02
   0.2820639248E+00   0.9625043015E-01   0.8767181302E-04  -0.1266151719E-05   0.0000000000E+00   0.0000000000E+00   0.1885716835E-01   0.2249669703E-02   0.0000000000E+00  -0.1862549850E-02
   0.2905261918E+00   0.9143479183E-01   0.8944681123E-04  -0.1042974905E-05   0.0000000000E+00   0.0000000000E+00   0.1848379772E-01   0.2527353926E-02   0.0000000000E+00  -0.1609097627E-02
   0.2907201785E+00   0.1010669540E+00   0.8900354254E-04  -0.1355963654E-05   0.0000000000E+00   0.0000000000E+00   0.1928070636E-01   0.2275294670E-02   0.0000000000E+00  -0.1616088372E-02
   0.1485000177E+00   0.2561451831E-01   0.7703166956E-04  -0.1024787672E-05   0.0000000000E+00   0.0000000000E+00   0.4867090983E-02  -0.3092572210E-02   0.0000000000E+00  -0.3647584723E-02
   0.1468091909E+00   0.4279767937E-01   0.7405893402E-04  -0.2002033658E-05   0.0000000000E+00   0.0000000000E+00   0.8093563071E-02  -0.3611957245E-02   0.0000000000E+00  -0.5579578258E-02
   0.1404581183E+00   0.4661411025E-01   0.7263934622E-04  -0.2660045199E-05   0.0000000000E+00   0.0000000000E+00   0.8586860087E-02  -0.4533244078E-02   0.0000000000E+00  -0.5825378743E-02
   0.2843886080E+00   0.4571791940E-01   0.9042603049E-04  -0.1804977324E-06   0.0000000000E+00   0.0000000000E+00   0.1530854883E-01   0.3601223590E-02   0.0000000000E+00  -0.1210825409E-02
   0.2737687661E+00   0.4604072299E-01   0.8891414353E-04  -0.2069059656E-06   0.0000000000E+00   0.0000000000E+00   0.1503778795E-01   0.3424313675E-02   0.0000000000E+00  -0.1445001272E-02
   0.2903479525E+00   0.8181237895E-01   0.8987246775E-04  -0.7776521913E-06   0.0000000000E+00   0.0000000000E+00   0.1774262774E-01   0.2806661834E-02   0.0000000000E+00  -0.1555393815E-02
   0.2818857701E+00   0.8662805500E-01   0.8818211968E-04  -0.9632001298E-06   0.0000000000E+00   0.0000000000E+00   0.1807292372E-01   0.2506628435E-02   0.0000000000E+00  -0.1825845949E-02
   0.1425594207E+00   0.7227676236E-01   0.6641068066E-04  -0.4620635720E-05   0.0000000000E+00   0.0000000000E+00   0.1605800072E-01  -0.4828572645E-02   0.0000000000E+00  -0.6777898939E-02
   0.1338566669E+00   0.6608886259E-01   0.6668093441E-04  -0.4910011795E-05   0.0000000000E+00   0.0000000000E+00   0.1424287364E-01  -0.5465702420E-02   0.0000000000E+00  -0.6839780270E-02
   0.1369516454E+00   0.5602626350E-01   0.6992136353E-04  -0.3682095260E-05   0.0000000000E+00   0.0000000000E+00   0.1102041868E-01  -0.4926266600E-02   0.0000000000E+00  -0.6616367475E-02
   0.1456542758E+00   0.6221409792E-01   0.6951381516E-04  -0.3454278753E-05   0.0000000000E+00   0.0000000000E+00   0.1332216349E-01  -0.4306605944E-02   0.0000000000E+00  -0.6598185793E-02
   0.6511123405E-01   0.1398614477E+00   0.2464575220E-04  -0.2868633102E-04   0.0000000000E+00   0.0000000000E+00   0.3625494139E-01   0.2935917101E-03   0.0000000000E+00   0.2186296264E-02
   0.1247337086E+00   0.1649815180E+00   0.4050860460E-04  -0.1887602235E-04   0.0000000000E+00   0.0000000000E+00   0.3049462499E-01  -0.3190595024E-02   0.0000000000E+00   0.1304777795E-02
   0.1144236893E+00   0.1657683594E+00   0.3713026722E-04  -0.2093159545E-04   0.0000000000E+00   0.0000000000E+00   0.3099520824E-01  -0.2885836837E-02   0.0000000000E+00   0.1941169610E-02
   0.1203012617E+00   0.1738498832E+00   0.3783474855E-04  -0.2076983360E-04   0.0000000000E+00   0.0000000000E+00   0.3049880981E-01  -0.2604293075E-02   0.0000000000E+00   0.1894948298E-02
   0.1099912740E+00   0.1746366857E+00   0.3448101195E-04  -0.2286428545E-04   0.0000000000E+00   0.0000000000E+00   0.3098663278E-01  -0.2364756151E-02   0.0000000000E+00   0.2501198559E-02
   0.2656151427E+00   0.1442596213E+00   0.8100970243E-04  -0.3884679805E-05   0.0000000000E+00   0.0000000000E+00   0.2322904631E-01   0.7107774589E-03   0.0000000000E+00  -0.1924954742E-02
   0.2823548727E+00   0.1345872790E+00   0.8542467897E-04  -0.2958993454E-05   0.0000000000E+00   0.0000000000E+00   0.2218461862E-01   0.1256746390E-02   0.0000000000E+00  -0.1694557399E-02
   0.2739850508E+00   0.1394234797E+00   0.8326075302E-04  -0.3392294540E-05   0.0000000000E+00   0.0000000000E+00   0.2270006403E-01   0.9919307834E-03   0.0000000000E+00  -0.1813702042E-02
   0.2823832495E+00   0.1438920251E+00   0.8486353676E-04  -0.3481931716E-05   0.0000000000E+00   0.0000000000E+00   0.2297919680E-01   0.1047628586E-02   0.0000000000E+00  -0.1602976655E-02
   0.2740133579E+00   0.1487281726E+00   0.8262993663E-04  -0.3953382568E-05   0.0000000000E+00   0.0000000000E+00   0.2351298659E-01   0.8028863549E-03   0.0000000000E+00  -0.1709468640E-02
   0.3075781992E+00   0.1582262765E+00   0.8999620194E-04  -0.3938495531E-05   0.0000000000E+00   0.0000000000E+00   0.2398676653E-01   0.1084070016E-02   0.0000000000E+00  -0.9510216274E-03
   0.2822076182E+00   0.1155408062E+00   0.8655618881E-04  -0.2022813313E-05   0.0000000000E+00   0.0000000000E+00   0.2051945028E-01   0.1722053114E-02   0.0000000000E+00  -0.1827910635E-02
   0.2907921173E+00   0.1107121583E+00   0.8852233272E-04  -0.1718681936E-05   0.0000000000E+00   0.0000000000E+00   0.2008019765E-01   0.2003404000E-02   0.0000000000E+00  -0.1608647284E-02
   0.2908495324E+00   0.1202938219E+00   0.8803139593E-04  -0.2127124255E-05   0.0000000000E+00   0.0000000000E+00   0.2090468760E-01   0.1756991392E-02   0.0000000000E+00  -0.1574998176E-02
   0.2821357641E+00   0.1058956432E+00   0.8712110107E-04  -0.1619801552E-05   0.0000000000E+00   0.0000000000E+00   0.1968300296E-01   0.1969280804E-02   0.0000000000E+00  -0.1853486298E-02
   0.2900225591E+00   0.7219067945E-01   0.9024810326E-04  -0.5589452402E-06   0.0000000000E+00   0.0000000000E+00   0.1701930696E-01   0.3046163335E-02   0.0000000000E+00  -0.1498753929E-02
   0.2850207880E+00   0.1830186451E+00   0.8325700988E-04  -0.6029861471E-05   0.0000000000E+00   0.0000000000E+00   0.2618819570E-01   0.4327658900E-03   0.0000000000E+00  -0.1105344389E-02
   0.2909232209E+00   0.1298170817E+00   0.8754191785E-04  -0.2579349214E-05   0.0000000000E+00   0.0000000000E+00   0.2171418557E-01   0.1517881649E-02   0.0000000000E+00  -0.1519706306E-02
   0.2994237765E+00   0.1345246173E+00   0.8913145451E-04  -0.2708706612E-05   0.0000000000E+00   0.0000000000E+00   0.2205280293E-01   0.1520849139E-02   0.0000000000E+00  -0.1289996334E-02
   0.2908554082E+00   0.1392948266E+00   0.8702315450E-04  -0.3076387304E-05   0.0000000000E+00   0.0000000000E+00   0.2253121075E-01   0.1292294076E-02   0.0000000000E+00  -0.1458099314E-02
   0.2287113288E+00   0.1908684004E+00   0.6750881042E-04  -0.9066584633E-05   0.0000000000E+00   0.0000000000E+00   0.2777818282E-01  -0.3459970259E-03   0.0000000000E+00  -0.1186397301E-02
   0.2991232533E+00   0.1533747719E+00   0.8821030851E-04  -0.3759075679E-05   0.0000000000E+00   0.0000000000E+00   0.2363266345E-01   0.1091312401E-02   0.0000000000E+00  -0.1169684230E-02
   0.2189149070E+00   0.1907955760E+00   0.6477095866E-04  -0.9740035884E-05   0.0000000000E+00   0.0000000000E+00   0.2802965252E-01  -0.5016449300E-03   0.0000000000E+00  -0.1103882733E-02
   0.2240735989E+00   0.1656316126E+00   0.6882392949E-04  -0.7206355204E-05   0.0000000000E+00   0.0000000000E+00   0.2597320790E-01  -0.5895412472E-03   0.0000000000E+00  -0.1804808775E-02
   0.2435854552E+00   0.1660180717E+00   0.7382321548E-04  -0.6196318803E-05   0.0000000000E+00   0.0000000000E+00   0.2550903978E-01  -0.6655750215E-04   0.0000000000E+00  -0.1775234699E-02
   0.2338295487E+00   0.1658248719E+00   0.7133771348E-04  -0.6664125548E-05   0.0000000000E+00   0.0000000000E+00   0.2571826807E-01  -0.3359697725E-03   0.0000000000E+00  -0.1798782577E-02
   0.2386212734E+00   0.1742434226E+00   0.7177235330E-04  -0.7090360366E-05   0.0000000000E+00   0.0000000000E+00   0.2628170130E-01  -0.2051935030E-03   0.0000000000E+00  -0.1592450242E-02
   0.2288652722E+00   0.1740501612E+00   0.6920718453E-04  -0.7620813649E-05   0.0000000000E+00   0.0000000000E+00   0.2652658537E-01  -0.4139051114E-03   0.0000000000E+00  -0.1594766325E-02
   0.9211433713E-01   0.1916090354E+00   0.2685973488E-04  -0.2830161248E-04   0.0000000000E+00   0.0000000000E+00   0.3019733872E-01  -0.9377558819E-03   0.0000000000E+00   0.3485232459E-02
   0.1302137094E+00   0.1736575180E+00   0.4095036554E-04  -0.1892797160E-04   0.0000000000E+00   0.0000000000E+00   0.3024086709E-01  -0.2707903460E-02   0.0000000000E+00   0.1375762332E-02
   0.1821866212E+00   0.1088849060E+00   0.6647720318E-04  -0.5016027607E-05   0.0000000000E+00   0.0000000000E+00   0.2186570096E-01  -0.2492140045E-02   0.0000000000E+00  -0.4282845226E-02
   0.2056959619E+00   0.1120500254E+00   0.7115792360E-04  -0.3935616457E-05   0.0000000000E+00   0.0000000000E+00   0.2132300535E-01  -0.1056965444E-02   0.0000000000E+00  -0.3738372796E-02
   0.1888939539E+00   0.1288852468E+00   0.6471087864E-04  -0.6385159786E-05   0.0000000000E+00   0.0000000000E+00   0.2403722650E-01  -0.2213105721E-02   0.0000000000E+00  -0.3190046015E-02
   0.1939413145E+00   0.1104675167E+00   0.6883247181E-04  -0.4425282204E-05   0.0000000000E+00   0.0000000000E+00   0.2153320335E-01  -0.1781757463E-02   0.0000000000E+00  -0.4018155797E-02
   0.1972950572E+00   0.1204677350E+00   0.6802618331E-04  -0.5060972050E-05   0.0000000000E+00   0.0000000000E+00   0.2269431870E-01  -0.1636176050E-02   0.0000000000E+00  -0.3487053359E-02
   0.1855402205E+00   0.1188850789E+00   0.6552646877E-04  -0.5698118948E-05   0.0000000000E+00   0.0000000000E+00   0.2297525096E-01  -0.2330428967E-02   0.0000000000E+00  -0.3707220078E-02
   0.2648514340E+00   0.1643086939E+00   0.7931702087E-04  -0.5248146686E-05   0.0000000000E+00   0.0000000000E+00   0.2496158763E-01   0.3967661701E-03   0.0000000000E+00  -0.1627256415E-02
   0.2694665811E+00   0.1736743787E+00   0.7981314069E-04  -0.5777334917E-05   0.0000000000E+00   0.0000000000E+00   0.2565969807E-01   0.3789466650E-03   0.0000000000E+00  -0.1423804848E-02
   0.2639224115E+00   0.1827380337E+00   0.7774252093E-04  -0.6648263355E-05   0.0000000000E+00   0.0000000000E+00   0.2647147842E-01   0.1882426232E-03   0.0000000000E+00  -0.1324473018E-02
   0.2593072488E+00   0.1733723647E+00   0.7723081350E-04  -0.6103285688E-05   0.0000000000E+00   0.0000000000E+00   0.2579752435E-01   0.2076238782E-03   0.0000000000E+00  -0.1514900715E-02
   0.2585864310E+00   0.1909563884E+00   0.7572195398E-04  -0.7505574930E-05   0.0000000000E+00   0.0000000000E+00   0.2721535930E-01   0.1004543117E-03   0.0000000000E+00  -0.1219955793E-02
   0.2895874716E+00   0.1761259592E+00   0.8479163566E-04  -0.5423817704E-05   0.0000000000E+00   0.0000000000E+00   0.2559759727E-01   0.5881332938E-03   0.0000000000E+00  -0.1125851587E-02
   0.2786486006E+00   0.1761473735E+00   0.8200155292E-04  -0.5690458442E-05   0.0000000000E+00   0.0000000000E+00   0.2572772427E-01   0.4618478247E-03   0.0000000000E+00  -0.1269584732E-02
   0.8863228726E-01   0.1845818634E+00   0.2655555722E-04  -0.2829464830E-04   0.0000000000E+00   0.0000000000E+00   0.3078254182E-01  -0.9670465351E-03   0.0000000000E+00   0.3652597477E-02
   0.8411747276E-01   0.1923522419E+00   0.2434906428E-04  -0.2997411712E-04   0.0000000000E+00   0.0000000000E+00   0.3015874337E-01  -0.6081643678E-03   0.0000000000E+00   0.3720421647E-02
   0.8784516581E-01   0.1610173729E+00   0.2917330978E-04  -0.2589809094E-04   0.0000000000E+00   0.0000000000E+00   0.3250345252E-01  -0.1761124605E-02   0.0000000000E+00   0.3002788423E-02
   0.8065713600E-01   0.1545158588E+00   0.2769780257E-04  -0.2673624591E-04   0.0000000000E+00   0.0000000000E+00   0.3350878838E-01  -0.1368382714E-02   0.0000000000E+00   0.2996232944E-02
   0.1937325692E+00   0.9047506121E-01   0.7202715366E-04  -0.2926887444E-05   0.0000000000E+00   0.0000000000E+00   0.1869064547E-01  -0.1228919541E-02   0.0000000000E+00  -0.4656950982E-02
   0.2042705738E+00   0.9005536507E-01   0.7407579373E-04  -0.2499734224E-05   0.0000000000E+00   0.0000000000E+00   0.1844299146E-01  -0.5928091148E-03   0.0000000000E+00  -0.4306741787E-02
   0.1988947066E+00   0.8102293434E-01   0.7444356096E-04  -0.2144555839E-05   0.0000000000E+00   0.0000000000E+00   0.1727081196E-01  -0.5345366053E-03   0.0000000000E+00  -0.4513555622E-02
   0.2094325365E+00   0.8060313622E-01   0.7631753414E-04  -0.1819378708E-05   0.0000000000E+00   0.0000000000E+00   0.1706334091E-01   0.1159606590E-03   0.0000000000E+00  -0.4140664480E-02
   0.2238606904E+00   0.1823959416E+00   0.6700540838E-04  -0.8651414198E-05   0.0000000000E+00   0.0000000000E+00   0.2726962677E-01  -0.5120815476E-03   0.0000000000E+00  -0.1341735234E-02
   0.1404889671E+00   0.1735704022E+00   0.4412206523E-04  -0.1715881167E-04   0.0000000000E+00   0.0000000000E+00   0.2966197719E-01  -0.2671605241E-02   0.0000000000E+00   0.8023497070E-03
   0.1350090049E+00   0.1648944618E+00   0.4371885487E-04  -0.1704723103E-04   0.0000000000E+00   0.0000000000E+00   0.2986438282E-01  -0.3143952749E-02   0.0000000000E+00   0.7329327287E-03
   0.1350481569E+00   0.1461640455E+00   0.4682488949E-04  -0.1469145219E-04   0.0000000000E+00   0.0000000000E+00   0.2937681749E-01  -0.4184681230E-02   0.0000000000E+00  -0.5835134539E-03
   0.1401661284E+00   0.1554856376E+00   0.4678436863E-04  -0.1504239193E-04   0.0000000000E+00   0.0000000000E+00   0.2940967066E-01  -0.3578260311E-02   0.0000000000E+00  -0.1685100165E-03
   0.1298908667E+00   0.1555727925E+00   0.4360866063E-04  -0.1677347394E-04   0.0000000000E+00   0.0000000000E+00   0.2997131742E-01  -0.3695598880E-02   0.0000000000E+00   0.3375168126E-03
   0.5886499492E-01   0.1807795671E+00   0.1769422085E-04  -0.3378991141E-04   0.0000000000E+00   0.0000000000E+00   0.3120810450E-01   0.9947196872E-03   0.0000000000E+00   0.3869127099E-02
   0.1850634768E+00   0.1648370559E+00   0.5840784983E-04  -0.1027311210E-04   0.0000000000E+00   0.0000000000E+00   0.2732443110E-01  -0.1899632219E-02   0.0000000000E+00  -0.1312298468E-02
   0.1800340700E+00   0.1735130442E+00   0.5581904572E-04  -0.1169279462E-04   0.0000000000E+00   0.0000000000E+00   0.2801678511E-01  -0.1814269959E-02   0.0000000000E+00  -0.8247613144E-03
   0.1701609743E+00   0.1734355310E+00   0.5298325910E-04  -0.1285300454E-04   0.0000000000E+00   0.0000000000E+00   0.2850118889E-01  -0.2074902468E-02   0.0000000000E+00  -0.4992941576E-03
   0.1751904479E+00   0.1647596294E+00   0.5563991894E-04  -0.1133164327E-04   0.0000000000E+00   0.0000000000E+00   0.2774139558E-01  -0.2253884977E-02   0.0000000000E+00  -0.1026716120E-02
   0.1959046699E+00   0.1478008879E+00   0.6368493804E-04  -0.7619081423E-05   0.0000000000E+00   0.0000000000E+00   0.2552774970E-01  -0.1749344235E-02   0.0000000000E+00  -0.2278835361E-02
   0.1762044398E+00   0.1463285391E+00   0.5866278887E-04  -0.9267876650E-05   0.0000000000E+00   0.0000000000E+00   0.2643625566E-01  -0.2692712261E-02   0.0000000000E+00  -0.2060078066E-02
   0.1904840911E+00   0.1563190161E+00   0.6106408229E-04  -0.8901944251E-05   0.0000000000E+00   0.0000000000E+00   0.2645023065E-01  -0.1853587724E-02   0.0000000000E+00  -0.1804929736E-02
   0.1806339111E+00   0.1555827799E+00   0.5848107909E-04  -0.9781120616E-05   0.0000000000E+00   0.0000000000E+00   0.2692151114E-01  -0.2246597417E-02   0.0000000000E+00  -0.1657102987E-02
   0.1860545723E+00   0.1470647601E+00   0.6119930555E-04  -0.8389856730E-05   0.0000000000E+00   0.0000000000E+00   0.2590715997E-01  -0.2247109586E-02   0.0000000000E+00  -0.2184684900E-02
   0.7349504052E-01   0.1459866940E+00   0.2656402448E-04  -0.2740003896E-04   0.0000000000E+00   0.0000000000E+00   0.3458687610E-01  -0.7790316659E-03   0.0000000000E+00   0.2545401071E-02
   0.9340835849E-01   0.1194198420E+00   0.3938858904E-04  -0.1923798688E-04   0.0000000000E+00   0.0000000000E+00   0.3244894814E-01  -0.4384958587E-02   0.0000000000E+00  -0.1483733403E-02
   0.8405561734E-01   0.1150242761E+00   0.3750614109E-04  -0.2095893054E-04   0.0000000000E+00   0.0000000000E+00   0.3345001054E-01  -0.3137512348E-02   0.0000000000E+00  -0.2256919703E-02
   0.9417636272E-01   0.1078524693E+00   0.4316442450E-04  -0.1745373448E-04   0.0000000000E+00   0.0000000000E+00   0.3008163184E-01  -0.4527315757E-02   0.0000000000E+00  -0.3316645200E-02
   0.2464173918E+00   0.5431009042E-01   0.8462681442E-04  -0.4362838819E-06   0.0000000000E+00   0.0000000000E+00   0.1491652042E-01   0.2600757593E-02   0.0000000000E+00  -0.2407710187E-02
   0.2684405500E+00   0.5506964861E-01   0.8774302547E-04  -0.3418944718E-06   0.0000000000E+00   0.0000000000E+00   0.1552531346E-01   0.3122263979E-02   0.0000000000E+00  -0.1803975659E-02
   0.1776532676E+00   0.6219579321E-01   0.7410259494E-04  -0.1783986428E-05   0.0000000000E+00   0.0000000000E+00   0.1376384796E-01  -0.1250284552E-02   0.0000000000E+00  -0.5277738973E-02
   0.2302217476E+00   0.6300143412E-01   0.8159759655E-04  -0.7722781315E-06   0.0000000000E+00   0.0000000000E+00   0.1531638689E-01   0.1755046396E-02   0.0000000000E+00  -0.3124514172E-02
   0.2046034990E+00   0.1652260853E+00   0.6370800254E-04  -0.8539651060E-05   0.0000000000E+00   0.0000000000E+00   0.2657187169E-01  -0.1210710477E-02   0.0000000000E+00  -0.1663360228E-02
   0.1995660227E+00   0.1737195004E+00   0.6128970122E-04  -0.9755603297E-05   0.0000000000E+00   0.0000000000E+00   0.2732944677E-01  -0.1231172689E-02   0.0000000000E+00  -0.1284630057E-02
   0.1897959659E+00   0.1735249557E+00   0.5858590688E-04  -0.1065932763E-04   0.0000000000E+00   0.0000000000E+00   0.2772418099E-01  -0.1505055684E-02   0.0000000000E+00  -0.1090281484E-02
   0.1948335025E+00   0.1650316174E+00   0.6108046976E-04  -0.9352587764E-05   0.0000000000E+00   0.0000000000E+00   0.2690489589E-01  -0.1568184288E-02   0.0000000000E+00  -0.1502627227E-02
   0.2413159835E+00   0.6423374122E-01   0.8314150811E-04  -0.6943768980E-06   0.0000000000E+00   0.0000000000E+00   0.1559788351E-01   0.2114450944E-02   0.0000000000E+00  -0.2785111448E-02
   0.2519741223E+00   0.6427548380E-01   0.8474434887E-04  -0.6079973141E-06   0.0000000000E+00   0.0000000000E+00   0.1589630121E-01   0.2447689328E-02   0.0000000000E+00  -0.2439415212E-02
   0.2734328422E+00   0.9135658366E-01   0.8641816025E-04  -0.1183937695E-05   0.0000000000E+00   0.0000000000E+00   0.1843308444E-01   0.2208003341E-02   0.0000000000E+00  -0.2087827342E-02
   0.2733608423E+00   0.1011033203E+00   0.8576527702E-04  -0.1535692850E-05   0.0000000000E+00   0.0000000000E+00   0.1927661863E-01   0.1910442351E-02   0.0000000000E+00  -0.2102740431E-02
   0.5949052039E-01   0.1711324298E+00   0.1871949478E-04  -0.3285720618E-04   0.0000000000E+00   0.0000000000E+00   0.3236869205E-01   0.1136030256E-02   0.0000000000E+00   0.3823762601E-02
   0.2736315970E+00   0.1587527479E+00   0.8186097636E-04  -0.4611106848E-05   0.0000000000E+00   0.0000000000E+00   0.2436962255E-01   0.6390191924E-03   0.0000000000E+00  -0.1572997273E-02
   0.2652332693E+00   0.1542841790E+00   0.8015932226E-04  -0.4544972810E-05   0.0000000000E+00   0.0000000000E+00   0.2409396241E-01   0.5309417022E-03   0.0000000000E+00  -0.1777083240E-02
   0.2908838897E+00   0.1485995660E+00   0.8653667179E-04  -0.3605029739E-05   0.0000000000E+00   0.0000000000E+00   0.2331673533E-01   0.1095443876E-02   0.0000000000E+00  -0.1374716197E-02
   0.2732547201E+00   0.8173419947E-01   0.8699108584E-04  -0.8899328692E-06   0.0000000000E+00   0.0000000000E+00   0.1759958470E-01   0.2462315670E-02   0.0000000000E+00  -0.2047017380E-02
   0.2734325928E+00   0.1107484888E+00   0.8512576773E-04  -0.1933158839E-05   0.0000000000E+00   0.0000000000E+00   0.2015186974E-01   0.1660148177E-02   0.0000000000E+00  -0.2073898150E-02
   0.2648845812E+00   0.1254174840E+00   0.8230422679E-04  -0.2802978875E-05   0.0000000000E+00   0.0000000000E+00   0.2153698553E-01   0.1076002337E-02   0.0000000000E+00  -0.2183394393E-02
   0.2735461480E+00   0.1204791746E+00   0.8447797674E-04  -0.2383444488E-05   0.0000000000E+00   0.0000000000E+00   0.2101629567E-01   0.1406037654E-02   0.0000000000E+00  -0.2008865466E-02
   0.2822812616E+00   0.1250640660E+00   0.8599159557E-04  -0.2468038269E-05   0.0000000000E+00   0.0000000000E+00   0.2134625625E-01   0.1471672801E-02   0.0000000000E+00  -0.1766513160E-02
   0.2736196804E+00   0.1300023982E+00   0.8383236447E-04  -0.2871836066E-05   0.0000000000E+00   0.0000000000E+00   0.2187643368E-01   0.1180820347E-02   0.0000000000E+00  -0.1930320937E-02
   0.2466744163E+00   0.1161100126E+00   0.7930231070E-04  -0.2726350365E-05   0.0000000000E+00   0.0000000000E+00   0.2087052917E-01   0.7384936948E-03   0.0000000000E+00  -0.2724250431E-02
   0.2263550403E+00   0.1285815303E+00   0.7357629226E-04  -0.4195748414E-05   0.0000000000E+00   0.0000000000E+00   0.2254752000E-01  -0.3107143891E-03   0.0000000000E+00  -0.2883678205E-02
   0.2473944895E+00   0.1260471771E+00   0.7850152895E-04  -0.3279859685E-05   0.0000000000E+00   0.0000000000E+00   0.2180896981E-01   0.5388871865E-03   0.0000000000E+00  -0.2551041000E-02
   0.2372347885E+00   0.1322829355E+00   0.7562545487E-04  -0.4015495876E-05   0.0000000000E+00   0.0000000000E+00   0.2265587292E-01   0.5111515567E-04   0.0000000000E+00  -0.2618948420E-02
   0.2365148121E+00   0.1223458380E+00   0.7652308308E-04  -0.3393959596E-05   0.0000000000E+00   0.0000000000E+00   0.2167987399E-01   0.2198820310E-03   0.0000000000E+00  -0.2819056571E-02
   0.2740333738E+00   0.1667816998E+00   0.8142582453E-04  -0.5149211728E-05   0.0000000000E+00   0.0000000000E+00   0.2503097629E-01   0.5083703706E-03   0.0000000000E+00  -0.1465168055E-02
   0.1003713668E+00   0.1751968655E+00   0.3135781002E-04  -0.2487549873E-04   0.0000000000E+00   0.0000000000E+00   0.3115114884E-01  -0.1929780906E-02   0.0000000000E+00   0.2981299303E-02
   0.1259894178E+00   0.1249176249E+00   0.4837980922E-04  -0.1335307624E-04   0.0000000000E+00   0.0000000000E+00   0.2875521424E-01  -0.5350799028E-02   0.0000000000E+00  -0.2237273347E-02
   0.1076716103E+00   0.1274419612E+00   0.4204328197E-04  -0.1719278586E-04   0.0000000000E+00   0.0000000000E+00   0.3109354958E-01  -0.4941185363E-02   0.0000000000E+00  -0.1050070651E-02
   0.1190046802E+00   0.1352381747E+00   0.4394916901E-04  -0.1604429681E-04   0.0000000000E+00   0.0000000000E+00   0.3019515850E-01  -0.4756351531E-02   0.0000000000E+00  -0.8278756954E-03
   0.1098457374E+00   0.1365002833E+00   0.4074241113E-04  -0.1801668400E-04   0.0000000000E+00   0.0000000000E+00   0.3133025846E-01  -0.4452135789E-02   0.0000000000E+00  -0.1390210726E-03
   0.1168305664E+00   0.1261798841E+00   0.4526336594E-04  -0.1518890173E-04   0.0000000000E+00   0.0000000000E+00   0.2978866558E-01  -0.5222298563E-02   0.0000000000E+00  -0.1648335438E-02
   0.2486741759E+00   0.1742270263E+00   0.7440790556E-04  -0.6603698480E-05   0.0000000000E+00   0.0000000000E+00   0.2608304512E-01   0.1744611002E-04   0.0000000000E+00  -0.1578846273E-02
   0.2190689709E+00   0.1739773844E+00   0.6658988608E-04  -0.8245599768E-05   0.0000000000E+00   0.0000000000E+00   0.2675236927E-01  -0.6795097285E-03   0.0000000000E+00  -0.1529982853E-02
   0.1535953669E+00   0.3409293884E-01   0.7616885203E-04  -0.1230863454E-05   0.0000000000E+00   0.0000000000E+00   0.6931811749E-02  -0.2506110921E-02   0.0000000000E+00  -0.4579763326E-02
   0.2542184590E+00   0.1651634210E+00   0.7659203116E-04  -0.5683981931E-05   0.0000000000E+00   0.0000000000E+00   0.2521503182E-01   0.1641145572E-03   0.0000000000E+00  -0.1710144823E-02
   0.1108883749E+00   0.1108570540E+00   0.4742093984E-04  -0.1416395509E-04   0.0000000000E+00   0.0000000000E+00   0.2869155324E-01  -0.5846496851E-02   0.0000000000E+00  -0.3382167772E-02
   0.1196367222E+00   0.1069883635E+00   0.5110424002E-04  -0.1195745399E-04   0.0000000000E+00   0.0000000000E+00   0.2673076305E-01  -0.5942295606E-02   0.0000000000E+00  -0.4061469784E-02
   0.1126439070E+00   0.1023666484E+00   0.5049504982E-04  -0.1261355658E-04   0.0000000000E+00   0.0000000000E+00   0.2654586388E-01  -0.5990087814E-02   0.0000000000E+00  -0.4551933322E-02
   0.9456052415E-01   0.1683936195E+00   0.3037385093E-04  -0.2530949536E-04   0.0000000000E+00   0.0000000000E+00   0.3181385882E-01  -0.1909201512E-02   0.0000000000E+00   0.3090717395E-02
   0.9081834019E-01   0.1770354286E+00   0.2809818732E-04  -0.2705338421E-04   0.0000000000E+00   0.0000000000E+00   0.3133763403E-01  -0.1408362944E-02   0.0000000000E+00   0.3429895023E-02
   0.9601933389E-01   0.1358683683E+00   0.3627569185E-04  -0.2090871286E-04   0.0000000000E+00   0.0000000000E+00   0.3285144192E-01  -0.3744462779E-02   0.0000000000E+00   0.6181365622E-03
   0.8618939005E-01   0.1353064658E+00   0.3302174978E-04  -0.2310824580E-04   0.0000000000E+00   0.0000000000E+00   0.3385394539E-01  -0.2782854944E-02   0.0000000000E+00   0.9876318198E-03
   0.8488377182E-01   0.1270821143E+00   0.3444402172E-04  -0.2234674782E-04   0.0000000000E+00   0.0000000000E+00   0.3420664319E-01  -0.2962755668E-02   0.0000000000E+00  -0.7119349420E-04
   0.9471370898E-01   0.1276441001E+00   0.3769118451E-04  -0.2007887153E-04   0.0000000000E+00   0.0000000000E+00   0.3270468627E-01  -0.4033263341E-02   0.0000000000E+00  -0.3723226752E-03
   0.2093338516E+00   0.1737745969E+00   0.6397061790E-04  -0.8944087283E-05   0.0000000000E+00   0.0000000000E+00   0.2706710678E-01  -0.9297592024E-03   0.0000000000E+00  -0.1443925530E-02
   0.2288961229E+00   0.1049099071E+00   0.7688691731E-04  -0.2589902766E-05   0.0000000000E+00   0.0000000000E+00   0.1994348112E-01   0.3127119793E-03   0.0000000000E+00  -0.3337420960E-02
   0.2377852179E+00   0.1105099620E+00   0.7804985599E-04  -0.2652027832E-05   0.0000000000E+00   0.0000000000E+00   0.2044475569E-01   0.5551735987E-03   0.0000000000E+00  -0.3013728771E-02
   0.2276256031E+00   0.1167457612E+00   0.7524508226E-04  -0.3346789389E-05   0.0000000000E+00   0.0000000000E+00   0.2124469789E-01  -0.3952698517E-04   0.0000000000E+00  -0.3135005430E-02
   0.8352116691E-01   0.1432736138E+00   0.3052700538E-04  -0.2474422202E-04   0.0000000000E+00   0.0000000000E+00   0.3404339727E-01  -0.2231346543E-02   0.0000000000E+00   0.1882551550E-02
   0.1558411279E+00   0.1460910960E+00   0.5300389490E-04  -0.1161596532E-04   0.0000000000E+00   0.0000000000E+00   0.2775800338E-01  -0.3589908441E-02   0.0000000000E+00  -0.1500487202E-02
   0.1505626657E+00   0.1554491934E+00   0.4991069229E-04  -0.1345859177E-04   0.0000000000E+00   0.0000000000E+00   0.2858286839E-01  -0.3362396369E-02   0.0000000000E+00  -0.6720442416E-03
   0.1454446888E+00   0.1461276569E+00   0.4996077653E-04  -0.1306714825E-04   0.0000000000E+00   0.0000000000E+00   0.2844458530E-01  -0.3923864870E-02   0.0000000000E+00  -0.1066549330E-02
   0.1707609096E+00   0.1555053585E+00   0.5574056910E-04  -0.1084853795E-04   0.0000000000E+00   0.0000000000E+00   0.2737748603E-01  -0.2664226811E-02   0.0000000000E+00  -0.1396490903E-02
   0.1605791868E+00   0.1553865854E+00   0.5285179807E-04  -0.1208158677E-04   0.0000000000E+00   0.0000000000E+00   0.2805913694E-01  -0.3022879904E-02   0.0000000000E+00  -0.1064455757E-02
   0.1660228310E+00   0.1462098982E+00   0.5587302630E-04  -0.1036882843E-04   0.0000000000E+00   0.0000000000E+00   0.2700594172E-01  -0.3179201398E-02   0.0000000000E+00  -0.1804181418E-02
   0.2063306941E+00   0.1331326935E+00   0.6832906689E-04  -0.5575457928E-05   0.0000000000E+00   0.0000000000E+00   0.2367567892E-01  -0.1279840407E-02   0.0000000000E+00  -0.2939721424E-02
   0.2060133058E+00   0.1225913819E+00   0.6972175801E-04  -0.4733126446E-05   0.0000000000E+00   0.0000000000E+00   0.2251757311E-01  -0.1196208107E-02   0.0000000000E+00  -0.3344112938E-02
   0.2160254265E+00   0.1203157825E+00   0.7228554202E-04  -0.4060457173E-05   0.0000000000E+00   0.0000000000E+00   0.2199045264E-01  -0.6411580116E-03   0.0000000000E+00  -0.3265809585E-02
   0.2163429064E+00   0.1308571643E+00   0.7099935842E-04  -0.4833651065E-05   0.0000000000E+00   0.0000000000E+00   0.2306468817E-01  -0.7921736492E-03   0.0000000000E+00  -0.2919074375E-02
   0.2143385741E+00   0.1654288870E+00   0.6628408152E-04  -0.7827979348E-05   0.0000000000E+00   0.0000000000E+00   0.2624000410E-01  -0.9106651101E-03   0.0000000000E+00  -0.1747053073E-02
   0.2357783090E+00   0.7296675608E-01   0.8151597368E-04  -0.1011616264E-05   0.0000000000E+00   0.0000000000E+00   0.1643185870E-01   0.1617205063E-02   0.0000000000E+00  -0.3154333445E-02
   0.2615640519E+00   0.6195661055E-01   0.8634289094E-04  -0.4954451599E-06   0.0000000000E+00   0.0000000000E+00   0.1583720069E-01   0.2771874599E-02   0.0000000000E+00  -0.2118142369E-02
   0.1884252813E+00   0.8096123562E-01   0.7262226123E-04  -0.2510077941E-05   0.0000000000E+00   0.0000000000E+00   0.1718542804E-01  -0.1228442110E-02   0.0000000000E+00  -0.4944925911E-02
   0.2396763850E+00   0.8072852439E-01   0.8141898411E-04  -0.1228414064E-05   0.0000000000E+00   0.0000000000E+00   0.1726926594E-01   0.1503987492E-02   0.0000000000E+00  -0.3064935816E-02
   0.2150575677E+00   0.1483535344E+00   0.6850168241E-04  -0.6315612737E-05   0.0000000000E+00   0.0000000000E+00   0.2480382527E-01  -0.9316130888E-03   0.0000000000E+00  -0.2341998141E-02
   0.2247953913E+00   0.1488962895E+00   0.7086032981E-04  -0.5798492297E-05   0.0000000000E+00   0.0000000000E+00   0.2452585889E-01  -0.5924365078E-03   0.0000000000E+00  -0.2295105605E-02
   0.2293034085E+00   0.1575353300E+00   0.7103745473E-04  -0.6242953237E-05   0.0000000000E+00   0.0000000000E+00   0.2514950871E-01  -0.4253235123E-03   0.0000000000E+00  -0.2022665545E-02
   0.2195655409E+00   0.1569925748E+00   0.6861992812E-04  -0.6760202168E-05   0.0000000000E+00   0.0000000000E+00   0.2541026342E-01  -0.7312028093E-03   0.0000000000E+00  -0.2055286748E-02
   0.1021484289E+00   0.1151385222E+00   0.4346694194E-04  -0.1662381805E-04   0.0000000000E+00   0.0000000000E+00   0.3055370801E-01  -0.5186519668E-02   0.0000000000E+00  -0.2435433468E-02
   0.1029164768E+00   0.1035711798E+00   0.4727884721E-04  -0.1481615980E-04   0.0000000000E+00   0.0000000000E+00   0.2828476348E-01  -0.5505065723E-02   0.0000000000E+00  -0.4232111757E-02
   0.1040197094E+00   0.1407135478E+00   0.3796843167E-04  -0.1981324224E-04   0.0000000000E+00   0.0000000000E+00   0.3197166377E-01  -0.4027992133E-02   0.0000000000E+00   0.5622180284E-03
   0.9335112011E-01   0.1438355101E+00   0.3379021006E-04  -0.2256490835E-04   0.0000000000E+00   0.0000000000E+00   0.3295619131E-01  -0.3049063157E-02   0.0000000000E+00   0.1490697900E-02
   0.2580956694E+00   0.1581553509E+00   0.7812940029E-04  -0.5037137400E-05   0.0000000000E+00   0.0000000000E+00   0.2456717830E-01   0.3373992136E-03   0.0000000000E+00  -0.1806911266E-02
   0.2474627274E+00   0.1590100523E+00   0.7543740917E-04  -0.5498727703E-05   0.0000000000E+00   0.0000000000E+00   0.2483353471E-01   0.7326254716E-04   0.0000000000E+00  -0.1891905504E-02
   0.2568648502E+00   0.1401219717E+00   0.7933818825E-04  -0.3869349884E-05   0.0000000000E+00   0.0000000000E+00   0.2300586829E-01   0.5562660645E-03   0.0000000000E+00  -0.2138462223E-02
   0.2584775742E+00   0.1481308304E+00   0.7904123877E-04  -0.4339639506E-05   0.0000000000E+00   0.0000000000E+00   0.2368503125E-01   0.4845078446E-03   0.0000000000E+00  -0.1965309585E-02
   0.1235341814E+00   0.1458614598E+00   0.4330437781E-04  -0.1664623604E-04   0.0000000000E+00   0.0000000000E+00   0.3025384176E-01  -0.4212363162E-02   0.0000000000E+00   0.1353687126E-04
   0.1183768390E+00   0.1552700887E+00   0.4002703889E-04  -0.1884634136E-04   0.0000000000E+00   0.0000000000E+00   0.3095230509E-01  -0.3648825203E-02   0.0000000000E+00   0.1015134870E-02
   0.1465057933E+00   0.1281358747E+00   0.5367928674E-04  -0.1065425462E-04   0.0000000000E+00   0.0000000000E+00   0.2696800560E-01  -0.4567649799E-02   0.0000000000E+00  -0.2664779176E-02
   0.1511733872E+00   0.1371134800E+00   0.5326123042E-04  -0.1114796064E-04   0.0000000000E+00   0.0000000000E+00   0.2744943911E-01  -0.4027391893E-02   0.0000000000E+00  -0.2046840641E-02
   0.1407769446E+00   0.1371500028E+00   0.5022959953E-04  -0.1262319841E-04   0.0000000000E+00   0.0000000000E+00   0.2826105959E-01  -0.4420191816E-02   0.0000000000E+00  -0.1647380060E-02
   0.1092798900E+00   0.1191495034E+00   0.4463304802E-04  -0.1567864019E-04   0.0000000000E+00   0.0000000000E+00   0.2988630865E-01  -0.5294467478E-02   0.0000000000E+00  -0.2249014159E-02
   0.1184387890E+00   0.1178873911E+00   0.4779704565E-04  -0.1371092083E-04   0.0000000000E+00   0.0000000000E+00   0.2879021562E-01  -0.5595142170E-02   0.0000000000E+00  -0.2787137191E-02
   0.2390592744E+00   0.1577285352E+00   0.7346743315E-04  -0.5769791387E-05   0.0000000000E+00   0.0000000000E+00   0.2492312466E-01  -0.1249692289E-03   0.0000000000E+00  -0.1990715867E-02
   0.2098305515E+00   0.1567898434E+00   0.6613054089E-04  -0.7386585450E-05   0.0000000000E+00   0.0000000000E+00   0.2570143509E-01  -0.1094806519E-02   0.0000000000E+00  -0.2007275637E-02
   0.1669728142E+00   0.1253679131E+00   0.5976723618E-04  -0.7938930016E-05   0.0000000000E+00   0.0000000000E+00   0.2499456910E-01  -0.3533537948E-02   0.0000000000E+00  -0.3301191708E-02
   0.1614069636E+00   0.1357295713E+00   0.5638559700E-04  -0.9710747948E-05   0.0000000000E+00   0.0000000000E+00   0.2644090168E-01  -0.3604311458E-02   0.0000000000E+00  -0.2422466919E-02
   0.1567393676E+00   0.1267519938E+00   0.5678663845E-04  -0.9204159736E-05   0.0000000000E+00   0.0000000000E+00   0.2585382595E-01  -0.4077884400E-02   0.0000000000E+00  -0.3002122176E-02
   0.2002540461E+00   0.1565134753E+00   0.6365110584E-04  -0.8083733767E-05   0.0000000000E+00   0.0000000000E+00   0.2608007721E-01  -0.1448337094E-02   0.0000000000E+00  -0.1951770824E-02
   0.2207063512E+00   0.1384675984E+00   0.7108622036E-04  -0.5196590235E-05   0.0000000000E+00   0.0000000000E+00   0.2368553468E-01  -0.6442438868E-03   0.0000000000E+00  -0.2625338566E-02
   0.2106940846E+00   0.1407431202E+00   0.6837660572E-04  -0.5946824724E-05   0.0000000000E+00   0.0000000000E+00   0.2426988468E-01  -0.1088445067E-02   0.0000000000E+00  -0.2630084002E-02
   0.1976123190E+00   0.1310089879E+00   0.6652204061E-04  -0.5955091978E-05   0.0000000000E+00   0.0000000000E+00   0.2381259980E-01  -0.1754593122E-02   0.0000000000E+00  -0.3065834526E-02
   0.2011177182E+00   0.1404668418E+00   0.6603623694E-04  -0.6554213640E-05   0.0000000000E+00   0.0000000000E+00   0.2462729112E-01  -0.1532366651E-02   0.0000000000E+00  -0.2606719127E-02
   0.1923992549E+00   0.1383430635E+00   0.6414093050E-04  -0.7006529756E-05   0.0000000000E+00   0.0000000000E+00   0.2481463774E-01  -0.1952922056E-02   0.0000000000E+00  -0.2708865146E-02
   0.1825492406E+00   0.1376069702E+00   0.6172263435E-04  -0.7756839308E-05   0.0000000000E+00   0.0000000000E+00   0.2527942083E-01  -0.2471806980E-02   0.0000000000E+00  -0.2639594259E-02
   0.1715885360E+00   0.1358482206E+00   0.5912401719E-04  -0.8616399969E-05   0.0000000000E+00   0.0000000000E+00   0.2578077319E-01  -0.3059910363E-02   0.0000000000E+00  -0.2630903667E-02
   0.1779334010E+00   0.1271266400E+00   0.6226303757E-04  -0.7101967582E-05   0.0000000000E+00   0.0000000000E+00   0.2441974959E-01  -0.2891677621E-02   0.0000000000E+00  -0.3261689689E-02
   0.2054811400E+00   0.1480772554E+00   0.6611497983E-04  -0.6923617438E-05   0.0000000000E+00   0.0000000000E+00   0.2510802366E-01  -0.1354027474E-02   0.0000000000E+00  -0.2322417439E-02
   0.2647711131E+00   0.1156868529E+00   0.8303807314E-04  -0.2305054356E-05   0.0000000000E+00   0.0000000000E+00   0.2062878165E-01   0.1299407061E-02   0.0000000000E+00  -0.2271781435E-02
   0.2652498415E+00   0.1348385652E+00   0.8165151503E-04  -0.3323819234E-05   0.0000000000E+00   0.0000000000E+00   0.2237664323E-01   0.8734278706E-03   0.0000000000E+00  -0.2057148442E-02
   0.2471349375E+00   0.8500761157E-01   0.8229750076E-04  -0.1277830931E-05   0.0000000000E+00   0.0000000000E+00   0.1773733258E-01   0.1626821519E-02   0.0000000000E+00  -0.2855059452E-02
   0.2557794502E+00   0.1207637568E+00   0.8076924508E-04  -0.2756236010E-05   0.0000000000E+00   0.0000000000E+00   0.2122915395E-01   0.9253278746E-03   0.0000000000E+00  -0.2439631951E-02
   0.2564996320E+00   0.1307009217E+00   0.8006301203E-04  -0.3302317892E-05   0.0000000000E+00   0.0000000000E+00   0.2214364832E-01   0.7376893496E-03   0.0000000000E+00  -0.2280155786E-02
   0.1353810971E+00   0.7773650450E-01   0.6356314881E-04  -0.5930504244E-05   0.0000000000E+00   0.0000000000E+00   0.1782674887E-01  -0.5502911621E-02   0.0000000000E+00  -0.6653228449E-02
   0.1266783270E+00   0.7154845869E-01   0.6381600168E-04  -0.6366007306E-05   0.0000000000E+00   0.0000000000E+00   0.1593769215E-01  -0.5948303512E-02   0.0000000000E+00  -0.6862827171E-02
   0.1831761576E+00   0.9040707523E-01   0.7000355198E-04  -0.3410673315E-05   0.0000000000E+00   0.0000000000E+00   0.1890895263E-01  -0.2021650487E-02   0.0000000000E+00  -0.4996542797E-02
   0.1018454662E+00   0.1316551821E+00   0.3915322373E-04  -0.1903286396E-04   0.0000000000E+00   0.0000000000E+00   0.3203806636E-01  -0.4380448974E-02   0.0000000000E+00  -0.2148742688E-03
   0.1005399668E+00   0.1234309551E+00   0.4069479698E-04  -0.1816190129E-04   0.0000000000E+00   0.0000000000E+00   0.3166090392E-01  -0.4703819390E-02   0.0000000000E+00  -0.1335622785E-02
   0.1997141797E+00   0.1012625500E+00   0.7150668926E-04  -0.3424018915E-05   0.0000000000E+00   0.0000000000E+00   0.2005548815E-01  -0.1121542398E-02   0.0000000000E+00  -0.4175610477E-02
   0.2102523233E+00   0.1008428959E+00   0.7369434610E-04  -0.2962081718E-05   0.0000000000E+00   0.0000000000E+00   0.1981591031E-01  -0.5142145017E-03   0.0000000000E+00  -0.3875841294E-02
   0.2172961194E+00   0.1084800327E+00   0.7409936822E-04  -0.3192257664E-05   0.0000000000E+00   0.0000000000E+00   0.2056087596E-01  -0.3679311849E-03   0.0000000000E+00  -0.3550136129E-02
   0.1046723715E+00   0.9508077272E-01   0.5071553330E-04  -0.1326728497E-04   0.0000000000E+00   0.0000000000E+00   0.2550308454E-01  -0.5612092974E-02   0.0000000000E+00  -0.5374715095E-02
   0.1116779438E+00   0.8536522200E-01   0.5599782537E-04  -0.1053400188E-04   0.0000000000E+00   0.0000000000E+00   0.2145612818E-01  -0.6166365071E-02   0.0000000000E+00  -0.6128515599E-02
   0.1491919757E+00   0.9408300084E-01   0.6210774859E-04  -0.6238959913E-05   0.0000000000E+00   0.0000000000E+00   0.2126140858E-01  -0.4748695783E-02   0.0000000000E+00  -0.5672662223E-02
   0.1387885804E+00   0.9860138523E-01   0.5850144369E-04  -0.7943073774E-05   0.0000000000E+00   0.0000000000E+00   0.2297928616E-01  -0.5401737895E-02   0.0000000000E+00  -0.5218213795E-02
   0.1386971298E+00   0.8863960294E-01   0.6116683750E-04  -0.6764255387E-05   0.0000000000E+00   0.0000000000E+00   0.2076460903E-01  -0.5396118048E-02   0.0000000000E+00  -0.6100829291E-02
   0.2304440610E+00   0.1390102522E+00   0.7333099413E-04  -0.4766815599E-05   0.0000000000E+00   0.0000000000E+00   0.2344346959E-01  -0.2598740502E-03   0.0000000000E+00  -0.2543630810E-02
   0.1271870375E+00   0.1140185514E+00   0.5137350147E-04  -0.1164555576E-04   0.0000000000E+00   0.0000000000E+00   0.2697420436E-01  -0.5603512887E-02   0.0000000000E+00  -0.3542611245E-02
   0.1305186506E+00   0.1355408114E+00   0.4746559726E-04  -0.1403857120E-04   0.0000000000E+00   0.0000000000E+00   0.2916237474E-01  -0.4704822957E-02   0.0000000000E+00  -0.1337175607E-02
   0.1538468309E+00   0.1132521508E+00   0.5880093687E-04  -0.7939153806E-05   0.0000000000E+00   0.0000000000E+00   0.2437199276E-01  -0.4443277181E-02   0.0000000000E+00  -0.4112482966E-02
   0.1604097621E+00   0.1193100373E+00   0.5923111674E-04  -0.7933748204E-05   0.0000000000E+00   0.0000000000E+00   0.2474357343E-01  -0.3957518064E-02   0.0000000000E+00  -0.3678655176E-02
   0.1501763181E+00   0.1206940510E+00   0.5623809581E-04  -0.9258971554E-05   0.0000000000E+00   0.0000000000E+00   0.2569637229E-01  -0.4518458792E-02   0.0000000000E+00  -0.3417585244E-02
   0.1362476528E+00   0.1265268381E+00   0.5106875060E-04  -0.1191586839E-04   0.0000000000E+00   0.0000000000E+00   0.2768962373E-01  -0.4997102763E-02   0.0000000000E+00  -0.2494962260E-02
   0.2218522693E+00   0.9727275849E-01   0.7642428819E-04  -0.2364506974E-05   0.0000000000E+00   0.0000000000E+00   0.1915726577E-01   0.2201297030E-03   0.0000000000E+00  -0.3626923811E-02
   0.2470358005E+00   0.1059630713E+00   0.8034649178E-04  -0.2185710073E-05   0.0000000000E+00   0.0000000000E+00   0.1983852919E-01   0.9981792597E-03   0.0000000000E+00  -0.2816270182E-02
   0.2381466933E+00   0.1003630252E+00   0.7918532630E-04  -0.2106773430E-05   0.0000000000E+00   0.0000000000E+00   0.1933578043E-01   0.8195000768E-03   0.0000000000E+00  -0.3102865789E-02
   0.2556660684E+00   0.1110331229E+00   0.8159044754E-04  -0.2254071611E-05   0.0000000000E+00   0.0000000000E+00   0.2028096255E-01   0.1157914119E-02   0.0000000000E+00  -0.2536980438E-02
   0.1745797915E+00   0.1171265123E+00   0.6320346148E-04  -0.6374744307E-05   0.0000000000E+00   0.0000000000E+00   0.2345995839E-01  -0.3018864648E-02   0.0000000000E+00  -0.3823200047E-02
   0.1649635566E+00   0.1063855250E+00   0.6298561541E-04  -0.6091008099E-05   0.0000000000E+00   0.0000000000E+00   0.2248715242E-01  -0.3677955070E-02   0.0000000000E+00  -0.4624623276E-02
   0.1659681394E+00   0.1158767353E+00   0.6132237906E-04  -0.7002709289E-05   0.0000000000E+00   0.0000000000E+00   0.2375676032E-01  -0.3593553053E-02   0.0000000000E+00  -0.3949436036E-02
   0.1594052329E+00   0.1098188790E+00   0.6093189947E-04  -0.6970958822E-05   0.0000000000E+00   0.0000000000E+00   0.2339032521E-01  -0.4046546424E-02   0.0000000000E+00  -0.4352607891E-02
   0.1774030705E+00   0.9961195078E-01   0.6712248592E-04  -0.4502321317E-05   0.0000000000E+00   0.0000000000E+00   0.2061424580E-01  -0.2594106857E-02   0.0000000000E+00  -0.4772247944E-02
   0.1879596905E+00   0.9968007085E-01   0.6933947869E-04  -0.3884452598E-05   0.0000000000E+00   0.0000000000E+00   0.2031293373E-01  -0.1867082607E-02   0.0000000000E+00  -0.4488147503E-02
   0.2306880689E+00   0.9608392675E-01   0.7823489645E-04  -0.2068650418E-05   0.0000000000E+00   0.0000000000E+00   0.1894586560E-01   0.6309774820E-03   0.0000000000E+00  -0.3356633518E-02
   0.2399385364E+00   0.9153698026E-01   0.8041538302E-04  -0.1657642570E-05   0.0000000000E+00   0.0000000000E+00   0.1840567593E-01   0.1185529833E-02   0.0000000000E+00  -0.3109092787E-02
   0.1551239838E+00   0.6210120116E-01   0.7090482739E-04  -0.2800440068E-05   0.0000000000E+00   0.0000000000E+00   0.1322622635E-01  -0.3235011422E-02   0.0000000000E+00  -0.6214464238E-02
   0.1668440938E+00   0.6249774949E-01   0.7250277283E-04  -0.2220710336E-05   0.0000000000E+00   0.0000000000E+00   0.1380104307E-01  -0.2199227916E-02   0.0000000000E+00  -0.5749561630E-02
   0.1185794660E+00   0.8002525158E-01   0.5942196236E-04  -0.8594616120E-05   0.0000000000E+00   0.0000000000E+00   0.1943704711E-01  -0.6165113934E-02   0.0000000000E+00  -0.6774146420E-02
   0.1407837492E+00   0.1127017927E+00   0.5548420108E-04  -0.9458310949E-05   0.0000000000E+00   0.0000000000E+00   0.2551223648E-01  -0.5226430682E-02   0.0000000000E+00  -0.3999309035E-02
   0.1449878895E+00   0.1033924726E+00   0.5882346236E-04  -0.7772360435E-05   0.0000000000E+00   0.0000000000E+00   0.2339399231E-01  -0.5004404778E-02   0.0000000000E+00  -0.4889471125E-02
   0.1515193134E+00   0.1036675850E+00   0.6036442071E-04  -0.7080013015E-05   0.0000000000E+00   0.0000000000E+00   0.2291584602E-01  -0.4550648418E-02   0.0000000000E+00  -0.4854341943E-02
   0.1473153107E+00   0.1129770099E+00   0.5716273276E-04  -0.8661147482E-05   0.0000000000E+00   0.0000000000E+00   0.2488666715E-01  -0.4851194195E-02   0.0000000000E+00  -0.4076784819E-02
   0.1333866347E+00   0.1188097937E+00   0.5198267953E-04  -0.1132027813E-04   0.0000000000E+00   0.0000000000E+00   0.2711564040E-01  -0.5311021723E-02   0.0000000000E+00  -0.3147871016E-02
   0.1345842586E+00   0.1079106400E+00   0.5499558828E-04  -0.9693961014E-05   0.0000000000E+00   0.0000000000E+00   0.2532588178E-01  -0.5551952768E-02   0.0000000000E+00  -0.4388145470E-02
   0.1458755961E+00   0.8317992329E-01   0.6415709519E-04  -0.5391810161E-05   0.0000000000E+00   0.0000000000E+00   0.1874067333E-01  -0.4710678806E-02   0.0000000000E+00  -0.6250222422E-02
   0.1570776867E+00   0.1002342764E+00   0.6246770496E-04  -0.6147621711E-05   0.0000000000E+00   0.0000000000E+00   0.2193128485E-01  -0.4164523102E-02   0.0000000000E+00  -0.5075627203E-02
   0.1436446906E+00   0.1204188287E+00   0.5450864383E-04  -0.1006129893E-04   0.0000000000E+00   0.0000000000E+00   0.2627717771E-01  -0.4824853357E-02   0.0000000000E+00  -0.3274539199E-02
   0.1553458287E+00   0.8306720844E-01   0.6607265448E-04  -0.4552359262E-05   0.0000000000E+00   0.0000000000E+00   0.1852462704E-01  -0.3978597901E-02   0.0000000000E+00  -0.5990417914E-02
   0.1609059226E+00   0.9221112636E-01   0.6511357403E-04  -0.4992842971E-05   0.0000000000E+00   0.0000000000E+00   0.2009701596E-01  -0.3768290459E-02   0.0000000000E+00  -0.5519350623E-02
   0.1687916654E+00   0.9836232060E-01   0.6550439533E-04  -0.4982999407E-05   0.0000000000E+00   0.0000000000E+00   0.2091135233E-01  -0.3255273434E-02   0.0000000000E+00  -0.5002814168E-02
   0.1735751014E+00   0.1076352577E+00   0.6474343019E-04  -0.5515337319E-05   0.0000000000E+00   0.0000000000E+00   0.2212131988E-01  -0.3104059228E-02   0.0000000000E+00  -0.4454965666E-02
   0.1520294022E+00   0.7216401614E-01   0.6807524428E-04  -0.3812563127E-05   0.0000000000E+00   0.0000000000E+00   0.1586631051E-01  -0.3964812348E-02   0.0000000000E+00  -0.6503802944E-02
           1           4           6           6
           4           2           5           5
           5           3           6           6
           4           5           6           6
           7          10          12          12
          10           8          11          11
          11           9          12          12
          10          11          12          12
          13          16          18          18
          16          14          17          17
          17          15          18          18
          16          17          18          18
          19          22          24          24
          22          20          23          23
          23          21          24          24
          22          23          24          24
          25          27          29          29
          27          13          28          28
          28          26          29          29
          27          28          29          29
          30          33          35          35
          33          31          34          34
          34          32          35          35
          33          34          35          35
          36          38          40          40
          38          37          39          39
          39          19          40          40
          38          39          40          40
          41          44          46          46
          44          42          45          45
          45          43          46          46
          44          45          46          46
          47          49          51          51
          49          48          50          50
          50           2          51          51
          49          50          51          51
          52          53          54          54
          53          47          51          51
          51           2          54          54
          53          51          54          54
          55          57          59          59
          57           3          58          58
          58          56          59          59
          57          58          59          59
          60          63          65          65
          63          61          64          64
          64          62          65          65
          63          64          65          65
          66          69          71          71
          69          67          70          70
          70          68          71          71
          69          70          71          71
          72          73          75          75
          73          66          74          74
          74          52          75          75
          73          74          75          75
          76          78          80          80
          78          77          79          79
          79          41          80          80
          78          79          80          80
          55          59          82          82
          59          56          81          81
          81          14          82          82
          59          81          82          82
          83          84          85          85
          84          30          35          35
          35          32          85          85
          84          35          85          85
          86          89          91          91
          89          87          90          90
          90          88          91          91
          89          90          91          91
          92          94          96          96
          94          88          95          95
          95          93          96          96
          94          95          96          96
          97         100         102         102
         100          98         101         101
         101          99         102         102
         100         101         102         102
         103         105         107         107
         105         104         106         106
         106          92         107         107
         105         106         107         107
         108         111         113         113
         111         109         112         112
         112         110         113         113
         111         112         113         113
         114         117         119         119
         117         115         118         118
         118         116         119         119
         117         118         119         119
         120         123         125         125
         123         121         124         124
         124         122         125         125
         123         124         125         125
         126         129         131         131
         129         127         130         130
         130         128         131         131
         129         130         131         131
         132         135         137         137
         135         133         136         136
         136         134         137         137
         135         136         137         137
         138         140         142         142
         140         139         141         141
         141         126         142         142
         140         141         142         142
         134         144         146         146
         144          25         145         145
         145         143         146         146
         144         145         146         146
         147         150         152         152
         150         148         151         151
         151         149         152         152
         150         151         152         152
         153         155         157         157
         155         147         156         156
         156         154         157         157
         155         156         157         157
         158         161         163         163
         161         159         162         162
         162         160         163         163
         161         162         163         163
         164         167         169         169
         167         165         168         168
         168         166         169         169
         167         168         169         169
         165         172         174         174
         172         170         173         173
         173         171         174         174
         172         173         174         174
         170         176         173         173
         176         175         177         177
         177         171         173         173
         176         177         173         173
         178         179         181         181
         179         116         180         180
         180         108         181         181
         179         180         181         181
         182         185         187         187
         185         183         186         186
         186         184         187         187
         185         186         187         187
          99         190         192         192
         190         188         191         191
         191         189         192         192
         190         191         192         192
          98         194         101         101
         194         193         195         195
         195          99         101         101
         194         195         101         101
         196         198         200         200
         198         197         199         199
         199          98         200         200
         198         199         200         200
          92          96         202         202
          96          93         201         201
         201         196         202         202
          96         201         202         202
          77         204         206         206
         204         203         205         205
         205          42         206         206
         204         205         206         206
          41          79          44          44
          79          77         206         206
         206          42          44          44
          79         206          44          44
          76         208         210         210
         208          62         209         209
         209         207         210         210
         208         209         210         210
         211         212         214         214
         212           1         213         213
         213          55         214         214
         212         213         214         214
         215         217         219         219
         217         216         218         218
         218          62         219         219
         217         218         219         219
           9         221         223         223
         221         220         222         222
         222         215         223         223
         221         222         223         223
         224         226         228         228
         226         225         227         227
         227           7         228         228
         226         227         228         228
          21         230         232         232
         230         229         231         231
         231         224         232         232
         230         231         232         232
         233         234         235         235
         234          21         232         232
         232         224         235         235
         234         232         235         235
         236         238         240         240
         238         237         239         239
         239          19         240         240
         238         239         240         240
         241         243         245         245
         243         242         244         244
         244         236         245         245
         243         244         245         245
         246         248         250         250
         248         247         249         249
         249         241         250         250
         248         249         250         250
         251         253         255         255
         253         252         254         254
         254         246         255         255
         253         254         255         255
         256         258         260         260
         258         257         259         259
         259         251         260         260
         258         259         260         260
         261         263         265         265
         263         262         264         264
         264         256         265         265
         263         264         265         265
         266         268         270         270
         268         267         269         269
         269         261         270         270
         268         269         270         270
         153         157         272         272
         157         154         271         271
         271         266         272         272
         157         271         272         272
          14          81          17          17
          81          56         273         273
         273          15          17          17
          81         273          17          17
          13          18          28          28
          18          15         274         274
         274          26          28          28
          18         274          28          28
          25          29         145         145
          29          26         275         275
         275         143         145         145
          29         275         145         145
         276         279         281         281
         279         277         280         280
         280         278         281         281
         279         280         281         281
         128         130         284         284
         130         127         283         283
         283         282         284         284
         130         283         284         284
         114         285         117         117
         285         282         286         286
         286         115         117         117
         285         286         117         117
         134         146         288         288
         146         143         287         287
         287          30         288         288
         146         287         288         288
         289         292         294         294
         292         290         293         293
         293         291         294         294
         292         293         294         294
         295         298         300         300
         298         296         299         299
         299         297         300         300
         298         299         300         300
         297         303         305         305
         303         301         304         304
         304         302         305         305
         303         304         305         305
          66          71          74          74
          71          68         306         306
         306          52          74          74
          71         306          74          74
          52         306          53          53
         306          68         307         307
         307          47          53          53
         306         307          53          53
          60         308         310         310
         308          41         309         309
         309         295         310         310
         308         309         310         310
         302         311         312         312
         311          67          69          69
          69          66         312         312
         311          69         312         312
         313         315         317         317
         315         302         316         316
         316         314         317         317
         315         316         317         317
         302         304         311         311
         304         301         318         318
         318          67         311         311
         304         318         311         311
         319         320         321         321
         320         295         300         300
         300         297         321         321
         320         300         321         321
         297         299         303         303
         299         296         322         322
         322         301         303         303
         299         322         303         303
         295         309         323         323
         309          41          46          46
          46          43         323         323
         309          46         323         323
         295         323         298         298
         323          43         324         324
         324         296         298         298
         323         324         298         298
         211         326         328         328
         326         325         327         327
         327          72         328         328
         326         327         328         328
         329         330         331         331
         330           7          12          12
          12           9         331         331
         330          12         331         331
          83          85         334         334
          85          32         333         333
         333         332         334         334
          85         333         334         334
         335         337         339         339
         337         336         338         338
         338         138         339         339
         337         338         339         339
         116         118         341         341
         118         115         340         340
         340         109         341         341
         118         340         341         341
         189         343         345         345
         343         342         344         344
         344         184         345         345
         343         344         345         345
         184         348         350         350
         348         346         349         349
         349         347         350         350
         348         349         350         350
         114         351         285         285
         351         128         284         284
         284         282         285         285
         351         284         285         285
         126         141         129         129
         141         139         352         352
         352         127         129         129
         141         352         129         129
          37         353          39          39
         353         236         240         240
         240          19          39          39
         353         240          39          39
         354         356         358         358
         356         138         357         357
         357         355         358         358
         356         357         358         358
         138         338         140         140
         338         336         359         359
         359         139         140         140
         338         359         140         140
         360         361         363         363
         361         132         362         362
         362          83         363         363
         361         362         363         363
         335         364         337         337
         364         332         365         365
         365         336         337         337
         364         365         337         337
          83         366          84          84
         366         134         288         288
         288          30          84          84
         366         288          84          84
          83         334         367         367
         334         332         364         364
         364         335         367         367
         334         364         367         367
         347         349         369         369
         349         346         368         368
         368         175         369         369
         349         368         369         369
         370         371         372         372
         371         246         250         250
         250         241         372         372
         371         250         372         372
         122         124         374         374
         124         121         373         373
         373         183         374         374
         124         373         374         374
         184         344         348         348
         344         342         375         375
         375         346         348         348
         344         375         348         348
         121         376         377         377
         376          99         192         192
         192         189         377         377
         376         192         377         377
         189         191         343         343
         191         188         378         378
         378         342         343         343
         191         378         343         343
         379         381         383         383
         381         103         382         382
         382         380         383         383
         381         382         383         383
          99         195         190         190
         195         193         384         384
         384         188         190         190
         195         384         190         190
         385         386         387         387
         386          98         100         100
         100          97         387         387
         386         100         387         387
          98         199         194         194
         199         197         388         388
         388         193         194         194
         199         388         194         194
         103         389         391         391
         389         196         390         390
         390         385         391         391
         389         390         391         391
         196         201         198         198
         201          93         392         392
         392         197         198         198
         201         392         198         198
         104         393         106         106
         393          86         394         394
         394          92         106         106
         393         394         106         106
          92         394          94          94
         394          86          91          91
          91          88          94          94
         394          91          94          94
         395         397         399         399
         397          61         398         398
         398         396         399         399
         397         398         399         399
          62         218         209         209
         218         216         400         400
         400         207         209         209
         218         400         209         209
         401         402         404         404
         402         215         403         403
         403          61         404         404
         402         403         404         404
         215         222         217         217
         222         220         405         405
         405         216         217         217
         222         405         217         217
         406         408         410         410
         408         407         409         409
         409         329         410         410
         408         409         410         410
           9          11         221         221
          11           8         411         411
         411         220         221         221
          11         411         221         221
         412         415         417         417
         415         413         416         416
         416         414         417         417
         415         416         417         417
           7         227          10          10
         227         225         418         418
         418           8          10          10
         227         418          10          10
         419         421         423         423
         421          13         422         422
         422         420         423         423
         421         422         423         423
         224         231         226         226
         231         229         424         424
         424         225         226         226
         231         424         226         226
          36         425         426         426
         425          21         234         234
         234         233         426         426
         425         234         426         426
          21          23         230         230
          23          20         427         427
         427         229         230         230
          23         427         230         230
         428         429         430         430
         429         370         372         372
         372         241         430         430
         429         372         430         430
          19         239          22          22
         239         237         431         431
         431          20          22          22
         239         431          22          22
         428         432         433         433
         432         236         353         353
         353          37         433         433
         432         353         433         433
         236         244         238         238
         244         242         434         434
         434         237         238         238
         244         434         238         238
         435         437         439         439
         437         114         438         438
         438         436         439         439
         437         438         439         439
         241         249         243         243
         249         247         440         440
         440         242         243         243
         249         440         243         243
         441         442         443         443
         442         158         163         163
         163         160         443         443
         442         163         443         443
         246         254         248         248
         254         252         444         444
         444         247         248         248
         254         444         248         248
         445         446         447         447
         446         246         371         371
         371         370         447         447
         446         371         447         447
         251         259         253         253
         259         257         448         448
         448         252         253         253
         259         448         253         253
         164         169         451         451
         169         166         450         450
         450         449         451         451
         169         450         451         451
         256         264         258         258
         264         262         452         452
         452         257         258         258
         264         452         258         258
         166         168         455         455
         168         165         454         454
         454         453         455         455
         168         454         455         455
         261         269         263         263
         269         267         456         456
         456         262         263         263
         269         456         263         263
         457         458         460         460
         458         261         459         459
         459         159         460         460
         458         459         460         460
         266         271         268         268
         271         154         461         461
         461         267         268         268
         271         461         268         268
         462         463         465         465
         463         148         464         464
         464         153         465         465
         463         464         465         465
         153         464         155         155
         464         148         150         150
         150         147         155         155
         464         150         155         155
         314         316         466         466
         316         302         312         312
         312          66         466         466
         316         312         466         466
         325         468         470         470
         468         467         469         469
         469         314         470         470
         468         469         470         470
         396         471         473         473
         471          60         472         472
         472         319         473         473
         471         472         473         473
         313         474         475         475
         474         319         321         321
         321         297         475         475
         474         321         475         475
         313         475         315         315
         475         297         305         305
         305         302         315         315
         475         305         315         315
         395         476         478         478
         476         406         477         477
         477         401         478         478
         476         477         478         478
         170         479         176         176
         479         347         369         369
         369         175         176         176
         479         369         176         176
         165         174         454         454
         174         171         480         480
         480         453         454         454
         174         480         454         454
         183         481         186         186
         481         189         345         345
         345         184         186         186
         481         345         186         186
         482         485         487         487
         485         483         486         486
         486         484         487         487
         485         486         487         487
         166         455         490         490
         455         453         489         489
         489         488         490         490
         455         489         490         490
         491         493         495         495
         493         492         494         494
         494         164         495         495
         493         494         495         495
         182         187         496         496
         187         184         350         350
         350         347         496         496
         187         350         496         496
         497         498         499         499
         498         122         374         374
         374         183         499         499
         498         374         499         499
         121         500         376         376
         500          97         102         102
         102          99         376         376
         500         102         376         376
         121         377         373         373
         377         189         481         481
         481         183         373         373
         377         481         373         373
         501         503         505         505
         503         380         504         504
         504         502         505         505
         503         504         505         505
         385         390         386         386
         390         196         200         200
         200          98         386         386
         390         200         386         386
         462         506         507         507
         506         166         490         490
         490         488         507         507
         506         490         507         507
         449         508         509         509
         508         153         272         272
         272         266         509         509
         508         272         509         509
         510         511         512         512
         511         347         479         479
         479         170         512         512
         511         479         512         512
         513         515         517         517
         515         370         516         516
         516         514         517         517
         515         516         517         517
         462         507         463         463
         507         488         518         518
         518         148         463         463
         507         518         463         463
         449         519         508         508
         519         462         465         465
         465         153         508         508
         519         465         508         508
         159         459         520         520
         459         261         265         265
         265         256         520         520
         459         265         520         520
         521         522         523         523
         522         256         260         260
         260         251         523         523
         522         260         523         523
         524         525         526         526
         525         224         228         228
         228           7         526         526
         525         228         526         526
         420         422         527         527
         422          13          27          27
          27          25         527         527
         422          27         527         527
         401         528         402         402
         528           9         223         223
         223         215         402         402
         528         223         402         402
         277         531         533         533
         531         529         532         532
         532         530         533         533
         531         532         533         533
          36          40         425         425
          40          19          24          24
          24          21         425         425
          40          24         425         425
         435         534         437         437
         534         128         351         351
         351         114         437         437
         534         351         437         437
         428         430         432         432
         430         241         245         245
         245         236         432         432
         430         245         432         432
         535         536         538         538
         536         355         537         537
         537         126         538         538
         536         537         538         538
         277         541         543         543
         541         539         542         542
         542         540         543         543
         541         542         543         543
         540         545         547         547
         545         544         546         546
         546          37         547         547
         545         546         547         547
         548         550         552         552
         550         535         551         551
         551         549         552         552
         550         551         552         552
         514         553         555         555
         553         428         554         554
         554         544         555         555
         553         554         555         555
         513         557         559         559
         557         556         558         558
         558         445         559         559
         557         558         559         559
         445         560         446         446
         560         251         255         255
         255         246         446         446
         560         255         446         446
          61         403          64          64
         403         215         219         219
         219          62          64          64
         403         219          64          64
         561         562         563         563
         562         319         474         474
         474         313         563         563
         562         474         563         563
          76         210          78          78
         210         207         564         564
         564          77          78          78
         210         564          78          78
          60         565         308         308
         565          76          80          80
          80          41         308         308
         565          80         308         308
         561         566         562         562
         566         396         473         473
         473         319         562         562
         566         473         562         562
         401         567         528         528
         567         329         331         331
         331           9         528         528
         567         331         528         528
         524         568         525         525
         568         233         235         235
         235         224         525         525
         568         235         525         525
         524         526         569         569
         526           7         330         330
         330         329         569         569
         526         330         569         569
         521         570         522         522
         570         159         520         520
         520         256         522         522
         570         520         522         522
         521         523         571         571
         523         251         560         560
         560         445         571         571
         523         560         571         571
         164         573         167         167
         573         572         574         574
         574         165         167         167
         573         574         167         167
         457         575         458         458
         575         266         270         270
         270         261         458         458
         575         270         458         458
           1         576           4           4
         576          52          54          54
          54           2           4           4
         576          54           4           4
           1           6         213         213
           6           3          57          57
          57          55         213         213
           6          57         213         213
         108         180         111         111
         180         116         341         341
         341         109         111         111
         180         341         111         111
         577         578         579         579
         578         108         113         113
         113         110         579         579
         578         113         579         579
         577         579         582         582
         579         110         581         581
         581         580         582         582
         579         581         582         582
         104         583         584         584
         583         577         582         582
         582         580         584         584
         583         582         584         584
         436         438         585         585
         438         114         119         119
         119         116         585         585
         438         119         585         585
         586         588         590         590
         588         483         589         589
         589         587         590         590
         588         589         590         590
         355         357         537         537
         357         138         142         142
         142         126         537         537
         357         142         537         537
         535         538         591         591
         538         126         131         131
         131         128         591         591
         538         131         591         591
         435         592         534         534
         592         535         591         591
         591         128         534         534
         592         591         534         534
         548         594         596         596
         594         593         595         595
         595         355         596         596
         594         595         596         596
         597         600         602         602
         600         598         601         601
         601         599         602         602
         600         601         602         602
         603         604         606         606
         604         549         605         605
         605         435         606         606
         604         605         606         606
         132         137         362         362
         137         134         366         366
         366          83         362         362
         137         366         362         362
         354         607         356         356
         607         335         339         339
         339         138         356         356
         607         339         356         356
         104         584         393         393
         584         580         608         608
         608          86         393         393
         584         608         393         393
         103         107         389         389
         107          92         202         202
         202         196         389         389
         107         202         389         389
          60          65         565         565
          65          62         208         208
         208          76         565         565
          65         208         565         565
          60         310         472         472
         310         295         320         320
         320         319         472         472
         310         320         472         472
         380         382         609         609
         382         103         391         391
         391         385         609         609
         382         391         609         609
         103         610         105         105
         610         577         583         583
         583         104         105         105
         610         583         105         105
         611         612         613         613
         612          55          82          82
          82          14         613         613
         612          82         613         613
         419         614         421         421
         614          14          16          16
          16          13         421         421
         614          16         421         421
         530         617         619         619
         617         615         618         618
         618         616         619         619
         617         618         619         619
         133         620         621         621
         620         420         527         527
         527          25         621         621
         620         527         621         621
         133         621         136         136
         621          25         144         144
         144         134         136         136
         621         144         136         136
         622         623         625         625
         623         354         624         624
         624         593         625         625
         623         624         625         625
         615         626         628         628
         626         524         627         627
         627         407         628         628
         626         627         628         628
         419         629         614         614
         629         611         613         613
         613          14         614         614
         629         613         614         614
          72         630          73          73
         630         314         466         466
         466          66          73          73
         630         466          73          73
          72          75         631         631
          75          52         576         576
         576           1         631         631
          75         576         631         631
         449         450         519         519
         450         166         506         506
         506         462         519         519
         450         506         519         519
         449         509         632         632
         509         266         575         575
         575         457         632         632
         509         575         632         632
         396         398         471         471
         398          61          63          63
          63          60         471         471
         398          63         471         471
         467         633         469         469
         633         313         317         317
         317         314         469         469
         633         317         469         469
         467         634         633         633
         634         561         563         563
         563         313         633         633
         634         563         633         633
         635         636         637         637
         636         467         468         468
         468         325         637         637
         636         468         637         637
         325         470         327         327
         470         314         630         630
         630          72         327         327
         470         630         327         327
         638         641         643         643
         641         639         642         642
         642         640         643         643
         641         642         643         643
         379         644         381         381
         644         577         610         610
         610         103         381         381
         644         610         381         381
         502         645         646         646
         645         385         387         387
         387          97         646         646
         645         387         646         646
         211         328         212         212
         328          72         631         631
         631           1         212         212
         328         631         212         212
         647         648         650         650
         648         616         649         649
         649         407         650         650
         648         649         650         650
         492         652         654         654
         652         651         653         653
         653         572         654         654
         652         653         654         654
         572         655         574         574
         655         170         172         172
         172         165         574         574
         655         172         574         574
         491         656         657         657
         656         449         632         632
         632         457         657         657
         656         632         657         657
         658         660         662         662
         660         659         661         661
         661         651         662         662
         660         661         662         662
         497         499         663         663
         499         183         185         185
         185         182         663         663
         499         185         663         663
         599         665         667         667
         665         664         666         666
         666         549         667         667
         665         666         667         667
         668         669         671         671
         669         182         670         670
         670         510         671         671
         669         670         671         671
         513         559         515         515
         559         445         447         447
         447         370         515         515
         559         447         515         515
         586         673         675         675
         673         501         674         674
         674         672         675         675
         673         674         675         675
         120         676         123         123
         676          97         500         500
         500         121         123         123
         676         500         123         123
         502         504         645         645
         504         380         609         609
         609         385         645         645
         504         609         645         645
         502         646         677         677
         646          97         676         676
         676         120         677         677
         646         676         677         677
         510         670         511         511
         670         182         496         496
         496         347         511         511
         670         496         511         511
         510         512         678         678
         512         170         655         655
         655         572         678         678
         512         655         678         678
         544         554         546         546
         554         428         433         433
         433          37         546         546
         554         433         546         546
         540         547         679         679
         547          37          38          38
          38          36         679         679
         547          38         679         679
         407         627         409         409
         627         524         569         569
         569         329         409         409
         627         569         409         409
         406         410         477         477
         410         329         567         567
         567         401         477         477
         410         567         477         477
         529         680         681         681
         680          36         426         426
         426         233         681         681
         680         426         681         681
         682         685         687         687
         685         683         686         686
         686         684         687         687
         685         686         687         687
         395         478         397         397
         478         401         404         404
         404          61         397         397
         478         404         397         397
         640         642         689         689
         642         639         688         688
         688         395         689         689
         642         688         689         689
         160         162         690         690
         162         159         570         570
         570         521         690         690
         162         570         690         690
         556         691         558         558
         691         521         571         571
         571         445         558         558
         691         571         558         558
         692         693         695         695
         693         544         694         694
         694         539         695         695
         693         694         695         695
         514         516         553         553
         516         370         429         429
         429         428         553         553
         516         429         553         553
         696         698         700         700
         698         556         699         699
         699         697         700         700
         698         699         700         700
         556         701         691         691
         701         160         690         690
         690         521         691         691
         701         690         691         691
         615         702         626         626
         702         233         568         568
         568         524         626         626
         702         568         626         626
         616         618         649         649
         618         615         628         628
         628         407         649         649
         618         628         649         649
         491         703         493         493
         703         158         704         704
         704         492         493         493
         703         704         493         493
         158         705         161         161
         705         457         460         460
         460         159         161         161
         705         460         161         161
         529         706         680         680
         706         540         679         679
         679          36         680         680
         706         679         680         680
         529         681         707         707
         681         233         702         702
         702         615         707         707
         681         702         707         707
         692         708         693         693
         708         514         555         555
         555         544         693         693
         708         555         693         693
         709         712         714         714
         712         710         713         713
         713         711         714         714
         712         713         714         714
         395         399         715         715
         399         396         566         566
         566         561         715         715
         399         566         715         715
         638         643         717         717
         643         640         716         716
         716         635         717         717
         643         716         717         717
         211         214         718         718
         214          55         612         612
         612         611         718         718
         214         612         718         718
         719         720         721         721
         720         211         718         718
         718         611         721         721
         720         718         721         721
         178         722         179         179
         722         436         585         585
         585         116         179         179
         722         585         179         179
         379         723         724         724
         723         178         181         181
         181         108         724         724
         723         181         724         724
         549         551         605         605
         551         535         592         592
         592         435         605         605
         551         592         605         605
         603         606         725         725
         606         435         439         439
         439         436         725         725
         606         439         725         725
         593         624         595         595
         624         354         358         358
         358         355         595         595
         624         358         595         595
         548         596         550         550
         596         355         536         536
         536         535         550         550
         596         536         550         550
         692         727         708         708
         727         726         728         728
         728         514         708         708
         727         728         708         708
         664         729         731         731
         729         290         730         730
         730         548         731         731
         729         730         731         731
         732         733         734         734
         733         436         722         722
         722         178         734         734
         733         722         734         734
         735         736         737         737
         736         120         125         125
         125         122         737         737
         736         125         737         737
         360         363         738         738
         363          83         367         367
         367         335         738         738
         363         367         738         738
         360         739         361         361
         739         622         740         740
         740         132         361         361
         739         740         361         361
         379         724         644         644
         724         108         578         578
         578         577         644         644
         724         578         644         644
         501         741         503         503
         741         379         383         383
         383         380         503         503
         741         383         503         503
         501         742         741         741
         742         178         723         723
         723         379         741         741
         742         723         741         741
         672         743         744         744
         743         120         736         736
         736         735         744         744
         743         736         744         744
         745         746         748         748
         746         133         747         747
         747         622         748         748
         746         747         748         748
         622         747         740         740
         747         133         135         135
         135         132         740         740
         747         135         740         740
         719         749         720         720
         749         325         326         326
         326         211         720         720
         749         326         720         720
         413         751         753         753
         751         750         752         752
         752         616         753         753
         751         752         753         753
         754         756         758         758
         756         755         757         757
         757         659         758         758
         756         757         758         758
         651         759         653         653
         759         510         678         678
         678         572         653         653
         759         678         653         653
         760         761         762         762
         761         122         498         498
         498         497         762         762
         761         498         762         762
         760         763         761         761
         763         735         737         737
         737         122         761         761
         763         737         761         761
         672         674         764         764
         674         501         505         505
         505         502         764         764
         674         505         764         764
         672         764         743         743
         764         502         677         677
         677         120         743         743
         764         677         743         743
         492         654         494         494
         654         572         573         573
         573         164         494         494
         654         573         494         494
         441         765         442         442
         765         492         704         704
         704         158         442         442
         765         704         442         442
         755         766         768         768
         766         497         767         767
         767         668         768         768
         766         767         768         768
         697         699         769         769
         699         556         557         557
         557         513         769         769
         699         557         769         769
         668         767         669         669
         767         497         663         663
         663         182         669         669
         767         663         669         669
         668         671         770         770
         671         510         759         759
         759         651         770         770
         671         759         770         770
         491         495         656         656
         495         164         451         451
         451         449         656         656
         495         451         656         656
         491         657         703         703
         657         457         705         705
         705         158         703         703
         657         705         703         703
         726         771         728         728
         771         513         517         517
         517         514         728         728
         771         517         728         728
         772         774         776         776
         774         773         775         775
         775         697         776         776
         774         775         776         776
         647         650         777         777
         650         407         408         408
         408         406         777         777
         650         408         777         777
         750         778         752         752
         778         530         619         619
         619         616         752         752
         778         619         752         752
         779         782         784         784
         782         780         783         783
         783         781         784         784
         782         783         784         784
         530         532         617         617
         532         529         707         707
         707         615         617         617
         532         707         617         617
         785         786         788         788
         786         441         787         787
         787         696         788         788
         786         787         788         788
         696         789         698         698
         789         160         701         701
         701         556         698         698
         789         701         698         698
         658         790         791         791
         790         492         765         765
         765         441         791         791
         790         765         791         791
         441         443         787         787
         443         160         789         789
         789         696         787         787
         443         789         787         787
         539         694         542         542
         694         544         545         545
         545         540         542         542
         694         545         542         542
         277         543         531         531
         543         540         706         706
         706         529         531         531
         543         706         531         531
         639         792         793         793
         792         647         777         777
         777         406         793         793
         792         777         793         793
         414         794         795         795
         794         638         717         717
         717         635         795         795
         794         717         795         795
         598         797         799         799
         797         796         798         798
         798         664         799         799
         797         798         799         799
         726         800         771         771
         800         697         769         769
         769         513         771         771
         800         769         771         771
         278         801         802         802
         801         530         778         778
         778         750         802         802
         801         778         802         802
         803         804         805         805
         804         278         802         802
         802         750         805         805
         804         802         805         805
         639         793         688         688
         793         406         476         476
         476         395         688         688
         793         476         688         688
         640         689         806         806
         689         395         715         715
         715         561         806         806
         689         715         806         806
         807         808         810         810
         808         539         809         809
         809         276         810         810
         808         809         810         810
         811         813         815         815
         813         807         814         814
         814         812         815         815
         813         814         815         815
         719         816         749         749
         816         635         637         637
         637         325         749         749
         816         637         749         749
         817         818         819         819
         818         611         629         629
         629         419         819         819
         818         629         819         819
         732         820         733         733
         820         603         725         725
         725         436         733         733
         820         725         733         733
         732         734         821         821
         734         178         742         742
         742         501         821         821
         734         742         821         821
         290         822         730         730
         822         593         594         594
         594         548         730         730
         822         594         730         730
         664         731         666         666
         731         548         552         552
         552         549         666         666
         731         552         666         666
         599         667         823         823
         667         549         604         604
         604         603         823         823
         667         604         823         823
         824         825         827         827
         825         692         826         826
         826         807         827         827
         825         826         827         827
         587         828         829         829
         828         603         820         820
         820         732         829         829
         828         820         829         829
         484         486         831         831
         486         483         830         830
         830         735         831         831
         486         830         831         831
         640         806         832         832
         806         561         634         634
         634         467         832         832
         806         634         832         832
         640         832         716         716
         832         467         636         636
         636         635         716         716
         832         636         716         716
         754         758         834         834
         758         659         833         833
         833         785         834         834
         758         833         834         834
         659         835         661         661
         835         668         770         770
         770         651         661         661
         835         770         661         661
         483         836         830         830
         836         672         744         744
         744         735         830         830
         836         744         830         830
         484         831         837         837
         831         735         763         763
         763         760         837         837
         831         763         837         837
         838         839         841         841
         839         760         840         840
         840         755         841         841
         839         840         841         841
         842         844         846         846
         844         711         845         845
         845         843         846         846
         844         845         846         846
         658         662         790         790
         662         651         652         652
         652         492         790         790
         662         652         790         790
         785         847         786         786
         847         658         791         791
         791         441         786         786
         847         791         786         786
         413         753         848         848
         753         616         648         648
         648         647         848         848
         753         648         848         848
         849         851         853         853
         851         412         852         852
         852         850         853         853
         851         852         853         853
         773         854         775         775
         854         696         700         700
         700         697         775         775
         854         700         775         775
         772         776         855         855
         776         697         800         800
         800         726         855         855
         776         800         855         855
         360         738         856         856
         738         335         607         607
         607         354         856         856
         738         607         856         856
         360         856         739         739
         856         354         623         623
         623         622         739         739
         856         623         739         739
         785         833         847         847
         833         659         660         660
         660         658         847         847
         833         660         847         847
         785         788         857         857
         788         696         854         854
         854         773         857         857
         788         854         857         857
         683         859         686         686
         859         858         860         860
         860         684         686         686
         859         860         686         686
         278         280         801         801
         280         277         533         533
         533         530         801         801
         280         533         801         801
         638         861         862         862
         861         413         848         848
         848         647         862         862
         861         848         862         862
         863         864         866         866
         864         719         865         865
         865         817         866         866
         864         865         866         866
         824         867         825         825
         867         726         727         727
         727         692         825         825
         867         727         825         825
         868         869         870         870
         869         842         846         846
         846         843         870         870
         869         846         870         870
         638         862         641         641
         862         647         792         792
         792         639         641         641
         862         792         641         641
         414         795         871         871
         795         635         816         816
         816         719         871         871
         795         816         871         871
         872         873         874         874
         873         278         804         804
         804         803         874         874
         873         804         874         874
         276         809         279         279
         809         539         541         541
         541         277         279         279
         809         541         279         279
         812         875         877         877
         875         276         876         876
         876         872         877         877
         875         876         877         877
         807         826         808         808
         826         692         695         695
         695         539         808         808
         826         695         808         808
         878         879         881         881
         879         780         880         880
         880         843         881         881
         879         880         881         881
         824         882         867         867
         882         772         855         855
         855         726         867         867
         882         855         867         867
         755         840         766         766
         840         760         762         762
         762         497         766         766
         840         762         766         766
         755         768         757         757
         768         668         835         835
         835         659         757         757
         768         835         757         757
         587         883         828         828
         883         599         823         823
         823         603         828         828
         883         823         828         828
         586         590         884         884
         590         587         829         829
         829         732         884         884
         590         829         884         884
         796         885         798         798
         885         290         729         729
         729         664         798         798
         885         729         798         798
         598         799         601         601
         799         664         665         665
         665         599         601         601
         799         665         601         601
         597         602         886         886
         602         599         883         883
         883         587         886         886
         602         883         886         886
         887         888         890         890
         888         710         889         889
         889         772         890         890
         888         889         890         890
         586         884         673         673
         884         732         821         821
         821         501         673         673
         884         821         673         673
         586         675         588         588
         675         672         836         836
         836         483         588         588
         675         836         588         588
         817         865         818         818
         865         719         721         721
         721         611         818         818
         865         721         818         818
         414         416         794         794
         416         413         861         861
         861         638         794         794
         416         861         794         794
         858         891         892         892
         891         817         819         819
         819         419         892         892
         891         819         892         892
         863         893         894         894
         893         412         417         417
         417         414         894         894
         893         417         894         894
         709         895         896         896
         895         785         857         857
         857         773         896         896
         895         857         896         896
         709         714         898         898
         714         711         897         897
         897         754         898         898
         714         897         898         898
         412         899         900         900
         899         803         805         805
         805         750         900         900
         899         805         900         900
         901         902         903         903
         902         872         874         874
         874         803         903         903
         902         874         903         903
         412         900         415         415
         900         750         751         751
         751         413         415         415
         900         751         415         415
         849         853         905         905
         853         850         904         904
         904         858         905         905
         853         904         905         905
         710         906         889         889
         906         773         774         774
         774         772         889         889
         906         774         889         889
         887         890         907         907
         890         772         882         882
         882         824         907         907
         890         882         907         907
         908         909         910         910
         909         872         902         902
         902         901         910         910
         909         902         910         910
         872         876         873         873
         876         276         281         281
         281         278         873         873
         876         281         873         873
         811         911         813         813
         911         824         827         827
         827         807         813         813
         911         827         813         813
         878         881         913         913
         881         843         912         912
         912         887         913         913
         881         912         913         913
         781         914         916         916
         914         878         915         915
         915         811         916         916
         914         915         916         916
         812         814         875         875
         814         807         810         810
         810         276         875         875
         814         810         875         875
         781         917         919         919
         917         812         918         918
         918         908         919         919
         917         918         919         919
         811         920         911         911
         920         887         907         907
         907         824         911         911
         920         907         911         911
         838         921         839         839
         921         484         837         837
         837         760         839         839
         921         837         839         839
         838         841         922         922
         841         755         756         756
         756         754         922         922
         841         756         922         922
         482         923         485         485
         923         587         589         589
         589         483         485         485
         923         589         485         485
         842         924         844         844
         924         838         925         925
         925         711         844         844
         924         925         844         844
         745         926         746         746
         926         682         927         927
         927         133         746         746
         926         927         746         746
         291         293         928         928
         293         290         885         885
         885         796         928         928
         293         885         928         928
         863         894         864         864
         894         414         871         871
         871         719         864         864
         894         871         864         864
         850         929         930         930
         929         863         866         866
         866         817         930         930
         929         866         930         930
         780         931         932         932
         931         796         797         797
         797         598         932         932
         931         797         932         932
         868         870         933         933
         870         843         880         880
         880         780         933         933
         870         880         933         933
         684         934         935         935
         934         419         423         423
         423         420         935         935
         934         423         935         935
         936         937         938         938
         937         683         685         685
         685         682         938         938
         937         685         938         938
         850         852         929         929
         852         412         893         893
         893         863         929         929
         852         893         929         929
         850         930         904         904
         930         817         891         891
         891         858         904         904
         930         891         904         904
         711         925         897         897
         925         838         922         922
         922         754         897         897
         925         922         897         897
         843         845         939         939
         845         711         713         713
         713         710         939         939
         845         713         939         939
         683         940         859         859
         940         849         905         905
         905         858         859         859
         940         905         859         859
         849         941         851         851
         941         803         899         899
         899         412         851         851
         941         899         851         851
         942         943         944         944
         943         908         910         910
         910         901         944         944
         943         910         944         944
         901         903         945         945
         903         803         941         941
         941         849         945         945
         903         941         945         945
         843         939         912         912
         939         710         888         888
         888         887         912         912
         939         888         912         912
         868         933         946         946
         933         780         932         932
         932         598         946         946
         933         932         946         946
         482         947         948         948
         947         842         869         869
         869         868         948         948
         947         869         948         948
         842         949         924         924
         949         484         921         921
         921         838         924         924
         949         921         924         924
         779         784         950         950
         784         781         919         919
         919         908         950         950
         784         919         950         950
         908         918         909         909
         918         812         877         877
         877         872         909         909
         918         877         909         909
         878         913         915         915
         913         887         920         920
         920         811         915         915
         913         920         915         915
         781         916         917         917
         916         811         815         815
         815         812         917         917
         916         815         917         917
         951         952         953         953
         952         908         943         943
         943         942         953         953
         952         943         953         953
         781         783         914         914
         783         780         879         879
         879         878         914         914
         783         879         914         914
         779         954         955         955
         954         291         928         928
         928         796         955         955
         954         928         955         955
         779         955         782         782
         955         796         931         931
         931         780         782         782
         955         931         782         782
         868         946         956         956
         946         598         600         600
         600         597         956         956
         946         600         956         956
         482         948         957         957
         948         868         956         956
         956         597         957         957
         948         956         957         957
         289         958         959         959
         958         622         625         625
         625         593         959         959
         958         625         959         959
         289         959         292         292
         959         593         822         822
         822         290         292         292
         959         822         292         292
         709         898         895         895
         898         754         834         834
         834         785         895         895
         898         834         895         895
         709         896         712         712
         896         773         906         906
         906         710         712         712
         896         906         712         712
         684         860         934         934
         860         858         892         892
         892         419         934         934
         860         892         934         934
         682         687         960         960
         687         684         935         935
         935         420         960         960
         687         935         960         960
         961         962         964         964
         962         936         963         963
         963         942         964         964
         962         963         964         964
         961         965         966         966
         965         849         940         940
         940         683         966         966
         965         940         966         966
         682         960         927         927
         960         420         620         620
         620         133         927         927
         960         620         927         927
         745         967         926         926
         967         936         938         938
         938         682         926         926
         967         938         926         926
         951         953         968         968
         953         942         963         963
         963         936         968         968
         953         963         968         968
         961         964         969         969
         964         942         944         944
         944         901         969         969
         964         944         969         969
         482         957         923         923
         957         597         886         886
         886         587         923         923
         957         886         923         923
         482         487         947         947
         487         484         949         949
         949         842         947         947
         487         949         947         947
         936         970         971         971
         970         289         294         294
         294         291         971         971
         970         294         971         971
         951         968         972         972
         968         936         971         971
         971         291         972         972
         968         971         972         972
         961         969         965         965
         969         901         945         945
         945         849         965         965
         969         945         965         965
         961         966         962         962
         966         683         937         937
         937         936         962         962
         966         937         962         962
         951         972         973         973
         972         291         954         954
         954         779         973         973
         972         954         973         973
         951         973         952         952
         973         779         950         950
         950         908         952         952
         973         950         952         952
         745         748         974         974
         748         622         958         958
         958         289         974         974
         748         958         974         974
         745         974         967         967
         974         289         970         970
         970         936         967         967
         974         970         967         967
 VARIABLES = X,Y,DU1,DU2,U1,U2,S11,S22,S33,S12
 ZONE, T="0.2000D+01" F=FEPOINT, I=  974 J= 1828
   0.3709658512E-01   0.1123703870E+00   0.2007326007E-04  -0.3245447713E-04   0.2007326007E-04  -0.3245447713E-04   0.9600701048E-01   0.1161884898E-01   0.0000000000E+00  -0.9360909582E-02
   0.1954026330E-01   0.9801227554E-01   0.1561544987E-04  -0.3312553065E-04   0.1561544987E-04  -0.3312553065E-04   0.1417455355E+00   0.6984302381E-02   0.0000000000E+00  -0.2503415251E-01
   0.3832943926E-01   0.9232680000E-01   0.3054832926E-04  -0.3057595206E-04   0.3054832926E-04  -0.3057595206E-04   0.1028331844E+00   0.1693729584E-01   0.0000000000E+00  -0.4041570343E-01
   0.2831916458E-01   0.1051903736E+00   0.1821454130E-04  -0.3327068920E-04   0.1821454130E-04  -0.3327068920E-04   0.1133635642E+00   0.9393066841E-02   0.0000000000E+00  -0.1826120573E-01
   0.2907490392E-01   0.9563008673E-01   0.2321805887E-04  -0.3197428743E-04   0.2321805887E-04  -0.3197428743E-04   0.1309731586E+00   0.1425825567E-01   0.0000000000E+00  -0.3725198453E-01
   0.3771114579E-01   0.1023486769E+00   0.2437759618E-04  -0.3147554685E-04   0.2437759618E-04  -0.3147554685E-04   0.9914273547E-01   0.1274234888E-01   0.0000000000E+00  -0.2332227222E-01
   0.1069621804E+00   0.2330622124E+00   0.2616969078E-04  -0.2929328556E-04   0.2616969078E-04  -0.2929328556E-04   0.5730297157E-01  -0.2965110943E-03   0.0000000000E+00   0.3317294232E-02
   0.9726363630E-01   0.2499349618E+00   0.2070619849E-04  -0.3251910997E-04   0.2070619849E-04  -0.3251910997E-04   0.5476850201E-01   0.4101524185E-04   0.0000000000E+00   0.1597010252E-03
   0.8741061424E-01   0.2329602218E+00   0.2072396766E-04  -0.3294761397E-04   0.2072396766E-04  -0.3294761397E-04   0.5419173377E-01  -0.1475763827E-03   0.0000000000E+00   0.3877056976E-02
   0.1021130315E+00   0.2414985533E+00   0.2349924523E-04  -0.3092334910E-04   0.2349924523E-04  -0.3092334910E-04   0.5600975418E-01  -0.9018838450E-04   0.0000000000E+00   0.1770748122E-02
   0.9233731054E-01   0.2414475974E+00   0.2080957062E-04  -0.3273082181E-04   0.2080957062E-04  -0.3273082181E-04   0.5433651243E-01  -0.1172338879E-03   0.0000000000E+00   0.1978373051E-02
   0.9718632309E-01   0.2330112069E+00   0.2340779517E-04  -0.3112557445E-04   0.2340779517E-04  -0.3112557445E-04   0.5585079636E-01  -0.1787853125E-03   0.0000000000E+00   0.3628944275E-02
   0.8884736212E-01   0.7377613178E-01   0.5609200861E-04  -0.1510310889E-04   0.5609200861E-04  -0.1510310889E-04   0.3286080464E-01  -0.5161644273E-02   0.0000000000E+00  -0.1363589870E-01
   0.7338248852E-01   0.8910250345E-01   0.4472540785E-04  -0.2114632678E-04   0.4472540785E-04  -0.2114632678E-04   0.5544941945E-01   0.2248191908E-02   0.0000000000E+00  -0.1665189816E-01
   0.7082196823E-01   0.7066677313E-01   0.5564341607E-04  -0.2195413443E-04   0.5564341607E-04  -0.2195413443E-04   0.2067598672E-01   0.1812924232E-01   0.0000000000E+00  -0.1968445949E-01
   0.8111547231E-01   0.8143927361E-01   0.5068035339E-04  -0.1814859339E-04   0.5068035339E-04  -0.1814859339E-04   0.4399208090E-01  -0.1215393432E-02   0.0000000000E+00  -0.1525356010E-01
   0.7210137551E-01   0.7988532440E-01   0.4975800477E-04  -0.2120904810E-04   0.4975800477E-04  -0.2120904810E-04   0.3830516368E-01   0.9533467804E-02   0.0000000000E+00  -0.1918966084E-01
   0.7983408895E-01   0.7222206560E-01   0.5558147383E-04  -0.1822204962E-04   0.5558147383E-04  -0.1822204962E-04   0.2750821606E-01   0.6476137318E-02   0.0000000000E+00  -0.1581212998E-01
   0.1653611375E+00   0.2330679705E+00   0.4387722956E-04  -0.1947027053E-04   0.4387722956E-04  -0.1947027053E-04   0.6261843034E-01  -0.3185868575E-03   0.0000000000E+00   0.7884252334E-03
   0.1556324275E+00   0.2499549946E+00   0.3843323091E-04  -0.2250271123E-04   0.3843323091E-04  -0.2250271123E-04   0.6491077243E-01   0.6657962035E-04   0.0000000000E+00   0.3533267266E-04
   0.1459018372E+00   0.2330736031E+00   0.3781560343E-04  -0.2240597037E-04   0.3781560343E-04  -0.2240597037E-04   0.6160292163E-01  -0.3654501315E-03   0.0000000000E+00   0.1619926228E-02
   0.1604968903E+00   0.2415115122E+00   0.4120914292E-04  -0.2097192258E-04   0.4120914292E-04  -0.2097192258E-04   0.6365809425E-01  -0.1435165760E-03   0.0000000000E+00   0.4665238259E-03
   0.1507671299E+00   0.2415143387E+00   0.3812344977E-04  -0.2243412906E-04   0.3812344977E-04  -0.2243412906E-04   0.6311123613E-01  -0.1655493907E-03   0.0000000000E+00   0.7703208851E-03
   0.1556314629E+00   0.2330708913E+00   0.4083445952E-04  -0.2088585991E-04   0.4083445952E-04  -0.2088585991E-04   0.6229757337E-01  -0.2713261762E-03   0.0000000000E+00   0.1197630665E-02
   0.1019468660E+00   0.5681371962E-01   0.6545248244E-04  -0.9701141767E-05   0.6545248244E-04  -0.9701141767E-05   0.1643805780E-01  -0.1358614678E-01   0.0000000000E+00  -0.9742749371E-02
   0.8327679408E-01   0.5552364781E-01   0.6491728908E-04  -0.1668794492E-04   0.6491728908E-04  -0.1668794492E-04   0.1006224566E-02  -0.6627499861E-03   0.0000000000E+00  -0.1256094714E-02
   0.9539777904E-01   0.6529498813E-01   0.6110651837E-04  -0.1237183385E-04   0.6110651837E-04  -0.1237183385E-04   0.2347930051E-01  -0.1045636154E-01   0.0000000000E+00  -0.1110419544E-01
   0.8606182850E-01   0.6465043652E-01   0.6037984946E-04  -0.1562124073E-04   0.6037984946E-04  -0.1562124073E-04   0.1666563439E-01  -0.2204007094E-02   0.0000000000E+00  -0.8619175494E-02
   0.9261136082E-01   0.5616969902E-01   0.6494835786E-04  -0.1268688825E-04   0.6494835786E-04  -0.1268688825E-04   0.1022511205E-01  -0.7215311772E-02   0.0000000000E+00  -0.5478098874E-02
   0.9822999083E-01   0.1949791212E-01   0.7573211451E-04  -0.5560139917E-05   0.7573211451E-04  -0.5560139917E-05  -0.3233991291E-02  -0.4583612721E-01   0.0000000000E+00   0.6937222155E-02
   0.1001540188E+00   0.0000000000E+00   0.7700892032E-04   0.0000000000E+00   0.7700892032E-04   0.0000000000E+00  -0.7973489156E-03  -0.5637794652E-01   0.0000000000E+00   0.3494993943E-03
   0.1209892625E+00   0.0000000000E+00   0.7796623034E-04   0.0000000000E+00   0.7796623034E-04   0.0000000000E+00  -0.2830144179E-02  -0.2086857492E-01   0.0000000000E+00  -0.8192896696E-03
   0.9967189689E-01   0.9796144499E-02   0.7671319678E-04  -0.2785090731E-05   0.7671319678E-04  -0.2785090731E-05  -0.2265787054E-03  -0.5614964945E-01   0.0000000000E+00   0.3134713630E-02
   0.1105720421E+00   0.0000000000E+00   0.7768802592E-04   0.0000000000E+00   0.7768802592E-04   0.0000000000E+00  -0.2388106413E-02  -0.3677551475E-01   0.0000000000E+00  -0.3007271829E-04
   0.1096105242E+00   0.9750909085E-02   0.7729808917E-04  -0.1803547560E-05   0.7729808917E-04  -0.1803547560E-05  -0.3484100128E-02  -0.3472802615E-01   0.0000000000E+00   0.1928303898E-02
   0.1556220036E+00   0.2161566402E+00   0.4306328094E-04  -0.1926289554E-04   0.4306328094E-04  -0.1926289554E-04   0.6058209325E-01  -0.1297857702E-02   0.0000000000E+00   0.1765663122E-02
   0.1750902692E+00   0.2161458154E+00   0.4900311435E-04  -0.1653928359E-04   0.4900311435E-04  -0.1653928359E-04   0.6065995853E-01  -0.1070043958E-02   0.0000000000E+00   0.5306581156E-03
   0.1653561365E+00   0.2161513413E+00   0.4603322852E-04  -0.1784433125E-04   0.4603322852E-04  -0.1784433125E-04   0.6072264991E-01  -0.1151664861E-02   0.0000000000E+00   0.1132738776E-02
   0.1702257541E+00   0.2246069194E+00   0.4646902710E-04  -0.1799177808E-04   0.4646902710E-04  -0.1799177808E-04   0.6156429051E-01  -0.7391566184E-03   0.0000000000E+00   0.7083764725E-03
   0.1604915476E+00   0.2246123263E+00   0.4346230438E-04  -0.1935633879E-04   0.4346230438E-04  -0.1935633879E-04   0.6153000502E-01  -0.8003666963E-03   0.0000000000E+00   0.1235349793E-02
   0.1752624897E-01   0.2244525006E+00   0.4088733799E-05  -0.4186971587E-04   0.4088733799E-05  -0.4186971587E-04   0.4751800627E-01   0.1409236600E-02   0.0000000000E+00   0.2030332577E-02
   0.0000000000E+00   0.2311644492E+00   0.0000000000E+00  -0.4277689476E-04   0.0000000000E+00  -0.4277689476E-04   0.4446757121E-01   0.8648537648E-03   0.0000000000E+00   0.7489295239E-04
   0.0000000000E+00   0.2124167716E+00   0.0000000000E+00  -0.4161721495E-04   0.0000000000E+00  -0.4161721495E-04   0.5137976389E-01   0.3174382584E-02   0.0000000000E+00   0.7185304682E-04
   0.8763003283E-02   0.2278082184E+00   0.1983776297E-05  -0.4244780465E-04   0.1983776297E-05  -0.4244780465E-04   0.4593544491E-01   0.1218708065E-02   0.0000000000E+00   0.1025191178E-02
   0.0000000000E+00   0.2217906189E+00   0.0000000000E+00  -0.4219652804E-04   0.0000000000E+00  -0.4219652804E-04   0.4773728703E-01   0.1929698544E-02   0.0000000000E+00   0.2532456642E-06
   0.8763289476E-02   0.2184344008E+00   0.2126872779E-05  -0.4186111344E-04   0.2126872779E-05  -0.4186111344E-04   0.4946978629E-01   0.2367838582E-02   0.0000000000E+00   0.1035278834E-02
   0.0000000000E+00   0.1186764793E+00   0.0000000000E+00  -0.3675982850E-04   0.0000000000E+00  -0.3675982850E-04   0.1063110861E+00   0.1537083318E-01   0.0000000000E+00   0.1281592520E-02
   0.0000000000E+00   0.9993221631E-01   0.0000000000E+00  -0.3389234625E-04   0.0000000000E+00  -0.3389234625E-04   0.1598198850E+00   0.1227775550E-02   0.0000000000E+00  -0.1032906522E-02
   0.0000000000E+00   0.1093035436E+00   0.0000000000E+00  -0.3572820935E-04   0.0000000000E+00  -0.3572820935E-04   0.1306950378E+00   0.9688233726E-02   0.0000000000E+00   0.5213982690E-04
   0.9817404051E-02   0.9945094921E-01   0.7844685441E-05  -0.3376064413E-04   0.7844685441E-05  -0.3376064413E-04   0.1582772388E+00   0.1095898158E-02   0.0000000000E+00  -0.1201449302E-01
   0.9767093135E-02   0.1083435313E+00   0.6288477293E-05  -0.3536586968E-04   0.6288477293E-05  -0.3536586968E-04   0.1269314559E+00   0.1184269180E-01   0.0000000000E+00  -0.9523222038E-02
   0.1825350314E-01   0.1244995397E+00   0.8577368119E-05  -0.3630916508E-04   0.8577368119E-05  -0.3630916508E-04   0.9589919232E-01   0.1544495083E-01   0.0000000000E+00  -0.7456246142E-03
   0.9127254680E-02   0.1215875403E+00   0.4540239756E-05  -0.3677082633E-04   0.4540239756E-05  -0.3677082633E-04   0.1012693183E+00   0.1449072251E-01   0.0000000000E+00   0.9848479570E-04
   0.1889489234E-01   0.1112552393E+00   0.1110141916E-04  -0.3504936310E-04   0.1110141916E-04  -0.3504936310E-04   0.1172406299E+00   0.1246233001E-01   0.0000000000E+00  -0.1077661944E-01
   0.5564989507E-01   0.1017468623E+00   0.3238758430E-04  -0.2725933533E-04   0.3238758430E-04  -0.2725933533E-04   0.7920049171E-01   0.7576886660E-02   0.0000000000E+00  -0.1570388076E-01
   0.5564516546E-01   0.8309353600E-01   0.4407088017E-04  -0.2671175036E-04   0.4407088017E-04  -0.2671175036E-04   0.5712433260E-01   0.2367488915E-01   0.0000000000E+00  -0.3657481986E-01
   0.4698962191E-01   0.9703639454E-01   0.3144625738E-04  -0.2913768161E-04   0.3144625738E-04  -0.2913768161E-04   0.8848743887E-01   0.1277166050E-01   0.0000000000E+00  -0.2747177804E-01
   0.4721468058E-01   0.8813467090E-01   0.3750308993E-04  -0.2872835038E-04   0.3750308993E-04  -0.2872835038E-04   0.8381131133E-01   0.2321288692E-01   0.0000000000E+00  -0.4161706182E-01
   0.5564610226E-01   0.9242072823E-01   0.3751523240E-04  -0.2672088572E-04   0.3751523240E-04  -0.2672088572E-04   0.6872682251E-01   0.1410437422E-01   0.0000000000E+00  -0.2623088819E-01
   0.3653324154E-01   0.2153364054E+00   0.9151820770E-05  -0.3965531052E-04   0.9151820770E-05  -0.3965531052E-04   0.5186226089E-01   0.1832150887E-02   0.0000000000E+00   0.4624335291E-02
   0.5763971671E-01   0.2158115675E+00   0.1463600625E-04  -0.3678977361E-04   0.1463600625E-04  -0.3678977361E-04   0.5363749933E-01   0.8060779851E-03   0.0000000000E+00   0.6005771639E-02
   0.4853997975E-01   0.2330079327E+00   0.1084727702E-04  -0.3938613174E-04   0.1084727702E-04  -0.3938613174E-04   0.4762329555E-01   0.3227162757E-03   0.0000000000E+00   0.3454219348E-02
   0.4708642618E-01   0.2155737511E+00   0.1186744132E-04  -0.3834397418E-04   0.1186744132E-04  -0.3834397418E-04   0.5265658039E-01   0.1319002387E-02   0.0000000000E+00   0.5384748182E-02
   0.5308982170E-01   0.2244096754E+00   0.1272839951E-04  -0.3812928543E-04   0.1272839951E-04  -0.3812928543E-04   0.5070694278E-01   0.6901713646E-03   0.0000000000E+00   0.4677208562E-02
   0.4253683490E-01   0.2241721083E+00   0.1011170246E-04  -0.3955133846E-04   0.1011170246E-04  -0.3955133846E-04   0.4976629534E-01   0.9770042937E-03   0.0000000000E+00   0.4077530611E-02
   0.1745417881E-01   0.1455798739E+00   0.6449304022E-05  -0.3755104751E-04   0.6449304022E-05  -0.3755104751E-04   0.7742729063E-01   0.1396447000E-01   0.0000000000E+00   0.2727767463E-02
   0.0000000000E+00   0.1561724771E+00   0.0000000000E+00  -0.3876146168E-04   0.0000000000E+00  -0.3876146168E-04   0.7179388894E-01   0.1361260327E-01   0.0000000000E+00   0.2114123297E-03
   0.0000000000E+00   0.1374240698E+00   0.0000000000E+00  -0.3796657848E-04   0.0000000000E+00  -0.3796657848E-04   0.8425950303E-01   0.1643673340E-01   0.0000000000E+00   0.7769538821E-03
   0.8726817945E-02   0.1508757779E+00   0.3088927672E-05  -0.3835503413E-04   0.3088927672E-05  -0.3835503413E-04   0.7478204145E-01   0.1401314522E-01   0.0000000000E+00   0.1201452947E-02
   0.0000000000E+00   0.1467982395E+00   0.0000000000E+00  -0.3837722668E-04   0.0000000000E+00  -0.3837722668E-04   0.7837703744E-01   0.1504437026E-01   0.0000000000E+00  -0.1430957593E-04
   0.8727350358E-02   0.1415015920E+00   0.3355133868E-05  -0.3794499170E-04   0.3355133868E-05  -0.3794499170E-04   0.8101118569E-01   0.1514782564E-01   0.0000000000E+00   0.1521503686E-02
   0.3595885580E-01   0.1342892644E+00   0.1465130100E-04  -0.3442180523E-04   0.1465130100E-04  -0.3442180523E-04   0.8175434578E-01   0.1082026383E-01   0.0000000000E+00   0.2672061867E-02
   0.2670612979E-01   0.1399340904E+00   0.1035654588E-04  -0.3622579273E-04   0.1035654588E-04  -0.3622579273E-04   0.8046874930E-01   0.1267622088E-01   0.0000000000E+00   0.2469291109E-02
   0.1785345502E-01   0.1350396089E+00   0.7320812376E-05  -0.3697903503E-04   0.7320812376E-05  -0.3697903503E-04   0.8651670498E-01   0.1496847482E-01   0.0000000000E+00   0.1004966871E-02
   0.2710650042E-01   0.1293940923E+00   0.1177526167E-04  -0.3552035463E-04   0.1177526167E-04  -0.3552035463E-04   0.8679155845E-01   0.1260586726E-01   0.0000000000E+00   0.5413519043E-03
   0.3217153349E-01   0.2344957814E+00   0.6961195058E-05  -0.4139177832E-04   0.6961195058E-05  -0.4139177832E-04   0.4487335734E-01   0.4365672546E-03   0.0000000000E+00   0.2376109181E-02
   0.1945128315E-01   0.2499133916E+00   0.3419022966E-05  -0.4330422014E-04   0.3419022966E-05  -0.4330422014E-04   0.3612645381E-01  -0.1857180162E-03   0.0000000000E+00   0.2135394450E-03
   0.2581123645E-01   0.2422044151E+00   0.5103673708E-05  -0.4242994809E-04   0.5103673708E-05  -0.4242994809E-04   0.4079075364E-01   0.1872744944E-03   0.0000000000E+00   0.1134265544E-02
   0.1848895885E-01   0.2371828912E+00   0.3850276785E-05  -0.4261439114E-04   0.3850276785E-05  -0.4261439114E-04   0.4206294360E-01   0.4102204500E-03   0.0000000000E+00   0.1180059884E-02
   0.2484902936E-01   0.2294739852E+00   0.5594529958E-05  -0.4170487975E-04   0.5594529958E-05  -0.4170487975E-04   0.4608905820E-01   0.9172323569E-03   0.0000000000E+00   0.2223741883E-02
   0.6451335432E-01   0.8609813255E-01   0.4416271243E-04  -0.2387262400E-04   0.4416271243E-04  -0.2387262400E-04   0.5563336589E-01   0.1335172382E-01   0.0000000000E+00  -0.2551986476E-01
   0.6451653105E-01   0.9542448732E-01   0.3872517564E-04  -0.2430049076E-04   0.3872517564E-04  -0.2430049076E-04   0.6873097178E-01   0.5942259380E-02   0.0000000000E+00  -0.1689993501E-01
   0.1290544892E+00   0.2146309883E-01   0.7668259242E-04  -0.1712287344E-05   0.7668259242E-04  -0.1712287344E-05   0.2589164164E-02  -0.1417703963E-01   0.0000000000E+00  -0.6313730369E-02
   0.1136423346E+00   0.2048179047E-01   0.7625629050E-04  -0.2993715580E-05   0.7625629050E-04  -0.2993715580E-05  -0.6912613844E-03  -0.2823349410E-01   0.0000000000E+00  -0.9652709944E-03
   0.1250225886E+00   0.1073121551E-01   0.7767877683E-04  -0.1023094617E-05   0.7767877683E-04  -0.1023094617E-05  -0.4667859371E-04  -0.1761628245E-01   0.0000000000E+00  -0.3559091974E-02
   0.3293610131E+00   0.0000000000E+00   0.9716605927E-04   0.0000000000E+00   0.9716605927E-04   0.0000000000E+00   0.2969372915E-01   0.8900920220E-02   0.0000000000E+00  -0.1585554710E-04
   0.3501999940E+00   0.0000000000E+00   0.1000000000E-03   0.0000000000E+00   0.1000000000E-03   0.0000000000E+00   0.2997289939E-01   0.8931430559E-02   0.0000000000E+00   0.1069927996E-04
   0.3501999940E+00   0.1923074360E-01   0.1000000000E-03  -0.1314891941E-07   0.1000000000E-03  -0.1314891941E-07   0.3025497764E-01   0.8809031682E-02   0.0000000000E+00  -0.8696889955E-05
   0.3397804981E+00   0.0000000000E+00   0.9858052543E-04   0.0000000000E+00   0.9858052543E-04   0.0000000000E+00   0.2990845999E-01   0.8913367056E-02   0.0000000000E+00  -0.4952405102E-04
   0.3501999940E+00   0.9615375532E-02   0.1000000000E-03  -0.4719207096E-08   0.1000000000E-03  -0.4719207096E-08   0.3005741390E-01   0.8887328651E-02   0.0000000000E+00   0.8132257624E-05
   0.3397804870E+00   0.9615376815E-02   0.9857497922E-04  -0.4077457418E-08   0.9857497922E-04  -0.4077457418E-08   0.2995763349E-01   0.8869551026E-02   0.0000000000E+00  -0.5147618040E-04
   0.3316240776E+00   0.2617164030E-01   0.9740227824E-04  -0.3035177839E-07   0.9740227824E-04  -0.3035177839E-07   0.3044938054E-01   0.8623889633E-02   0.0000000000E+00  -0.4037707989E-03
   0.3501999940E+00   0.3846138523E-01   0.1000000000E-03  -0.7733431251E-07   0.1000000000E-03  -0.7733431251E-07   0.3134142113E-01   0.8362137764E-02   0.0000000000E+00  -0.9742756179E-05
   0.3409120488E+00   0.2270119428E-01   0.9870789724E-04  -0.2061067728E-07   0.9870789724E-04  -0.2061067728E-07   0.3038271606E-01   0.8708916520E-02   0.0000000000E+00  -0.2084458362E-03
   0.3501999940E+00   0.2884608283E-01   0.1000000000E-03  -0.3653567854E-07   0.1000000000E-03  -0.3653567854E-07   0.3082994016E-01   0.8578395499E-02   0.0000000000E+00   0.6624456586E-05
   0.3409119961E+00   0.3231652275E-01   0.9868156328E-04  -0.4932552727E-07   0.9868156328E-04  -0.4932552727E-07   0.3087980063E-01   0.8485439071E-02   0.0000000000E+00  -0.2093020422E-03
   0.3159694476E+00   0.7695443388E-01   0.9431480162E-04  -0.5689594611E-06   0.9431480162E-04  -0.5689594611E-06   0.3508793432E-01   0.6491628252E-02   0.0000000000E+00  -0.1716562567E-02
   0.3329228426E+00   0.6720865431E-01   0.9724328171E-04  -0.3692467969E-06   0.9724328171E-04  -0.3692467969E-06   0.3401864828E-01   0.7174002385E-02   0.0000000000E+00  -0.7998881508E-03
   0.3332788668E+00   0.8655597974E-01   0.9706738374E-04  -0.7452787070E-06   0.9706738374E-04  -0.7452787070E-06   0.3650937495E-01   0.6211528862E-02   0.0000000000E+00  -0.8853074181E-03
   0.3244461898E+00   0.7208156312E-01   0.9580891952E-04  -0.4595909473E-06   0.9580891952E-04  -0.4595909473E-06   0.3453668124E-01   0.6831136877E-02   0.0000000000E+00  -0.1256442638E-02
   0.3331008618E+00   0.7688236201E-01   0.9715888874E-04  -0.5365929810E-06   0.9715888874E-04  -0.5365929810E-06   0.3526240613E-01   0.6685018652E-02   0.0000000000E+00  -0.8465373893E-03
   0.3246241115E+00   0.8175521585E-01   0.9566075723E-04  -0.6507249922E-06   0.9566075723E-04  -0.6507249922E-06   0.3581741565E-01   0.6361462323E-02   0.0000000000E+00  -0.1293523868E-02
   0.3116042535E+00   0.3581676833E-01   0.9449924763E-04  -0.7538445219E-07   0.9449924763E-04  -0.7538445219E-07   0.3062812284E-01   0.8172506650E-02   0.0000000000E+00  -0.1124005381E-02
   0.3159638066E+00   0.1595495573E-01   0.9530880920E-04  -0.1153729771E-07   0.9530880920E-04  -0.1153729771E-07   0.2968087175E-01   0.8658334428E-02   0.0000000000E+00  -0.4578774269E-03
   0.3137840822E+00   0.2588588083E-01   0.9493010046E-04  -0.3403631668E-07   0.9493010046E-04  -0.3403631668E-07   0.3013694032E-01   0.8414288871E-02   0.0000000000E+00  -0.7731818190E-03
   0.3237939411E+00   0.2106329993E-01   0.9634754561E-04  -0.1953300950E-07   0.9634754561E-04  -0.1953300950E-07   0.3007496443E-01   0.8634600957E-02   0.0000000000E+00  -0.4301769393E-03
   0.3216142120E+00   0.3099421347E-01   0.9596648792E-04  -0.4876327513E-07   0.9596648792E-04  -0.4876327513E-07   0.3054202049E-01   0.8398434595E-02   0.0000000000E+00  -0.7562047632E-03
   0.2777805960E+00   0.1796169486E-01   0.9022849074E-04  -0.2842026370E-07   0.9022849074E-04  -0.2842026370E-07   0.2803475801E-01   0.7943523049E-02   0.0000000000E+00  -0.1178685633E-02
   0.2668447018E+00   0.0000000000E+00   0.8901041680E-04   0.0000000000E+00   0.8901041680E-04   0.0000000000E+00   0.2681251270E-01   0.7820742845E-02   0.0000000000E+00   0.1302052182E-06
   0.2876832609E+00   0.0000000000E+00   0.9163344448E-04   0.0000000000E+00   0.9163344448E-04   0.0000000000E+00   0.2821958231E-01   0.8342917536E-02   0.0000000000E+00   0.2432517827E-05
   0.2723127040E+00   0.8980851234E-02   0.8964698099E-04  -0.1229788631E-07   0.8964698099E-04  -0.1229788631E-07   0.2734918741E-01   0.7858082668E-02   0.0000000000E+00  -0.6358657190E-03
   0.2772639489E+00   0.0000000000E+00   0.9030593725E-04   0.0000000000E+00   0.9030593725E-04   0.0000000000E+00   0.2766297186E-01   0.8124326572E-02   0.0000000000E+00  -0.4508139025E-05
   0.2827319994E+00   0.8980856455E-02   0.9096620899E-04  -0.9687633910E-08   0.9096620899E-04  -0.9687633910E-08   0.2806028648E-01   0.8130723421E-02   0.0000000000E+00  -0.5483201856E-03
   0.2356556143E+00   0.1793976997E-01   0.8511964254E-04  -0.6641629986E-07   0.8511964254E-04  -0.6641629986E-07   0.2434352218E-01   0.6344667515E-02   0.0000000000E+00  -0.2154403929E-02
   0.2460064155E+00   0.0000000000E+00   0.8653923463E-04   0.0000000000E+00   0.8653923463E-04   0.0000000000E+00   0.2488334617E-01   0.7075353648E-02   0.0000000000E+00  -0.5512613860E-06
   0.2566842950E+00   0.1802023243E-01   0.8758500450E-04  -0.4318676862E-07   0.8758500450E-04  -0.4318676862E-07   0.2646015377E-01   0.7279430533E-02   0.0000000000E+00  -0.1628537493E-02
   0.2408311424E+00   0.8969901400E-02   0.8589317681E-04  -0.2500975972E-07   0.8589317681E-04  -0.2500975972E-07   0.2451546663E-01   0.6693202808E-02   0.0000000000E+00  -0.1015565130E-02
   0.2513454342E+00   0.9010119744E-02   0.8710158058E-04  -0.1983296484E-07   0.8710158058E-04  -0.1983296484E-07   0.2558060943E-01   0.7147178035E-02   0.0000000000E+00  -0.8702909999E-03
   0.2461699070E+00   0.1798000289E-01   0.8632852443E-04  -0.5350553413E-07   0.8632852443E-04  -0.5350553413E-07   0.2558914177E-01   0.6865362199E-02   0.0000000000E+00  -0.1885704653E-02
   0.2990795519E+00   0.8661825349E-01   0.9114295194E-04  -0.8561064776E-06   0.9114295194E-04  -0.8561064776E-06   0.3628894192E-01   0.5607530423E-02   0.0000000000E+00  -0.2712666283E-02
   0.3163481303E+00   0.9621730591E-01   0.9387466700E-04  -0.1046094996E-05   0.9387466700E-04  -0.1046094996E-05   0.3784187750E-01   0.5472721238E-02   0.0000000000E+00  -0.1828869059E-02
   0.2994669038E+00   0.1058820085E+00   0.9040339385E-04  -0.1458248810E-05   0.9040339385E-04  -0.1458248810E-05   0.3932909974E-01   0.4553221275E-02   0.0000000000E+00  -0.2772267809E-02
   0.3077137770E+00   0.9141779214E-01   0.9247652098E-04  -0.9448796532E-06   0.9247652098E-04  -0.9448796532E-06   0.3709491961E-01   0.5556487836E-02   0.0000000000E+00  -0.2259701589E-02
   0.3079075778E+00   0.1010496929E+00   0.9217689463E-04  -0.1236039236E-05   0.9217689463E-04  -0.1236039236E-05   0.3856612377E-01   0.5017550835E-02   0.0000000000E+00  -0.2302120667E-02
   0.2992732577E+00   0.9625017417E-01   0.9078034639E-04  -0.1133616846E-05   0.9078034639E-04  -0.1133616846E-05   0.3780261335E-01   0.5057267357E-02   0.0000000000E+00  -0.2755210408E-02
   0.1937801341E+00   0.1783118725E-01   0.8091804938E-04  -0.1762273536E-06   0.8091804938E-04  -0.1762273536E-06   0.1805566520E-01   0.3123857015E-02   0.0000000000E+00  -0.3584148561E-02
   0.2043311990E+00   0.0000000000E+00   0.8226648303E-04   0.0000000000E+00   0.8226648303E-04   0.0000000000E+00   0.1898189966E-01   0.4521952658E-02   0.0000000000E+00  -0.6033455912E-05
   0.2147309803E+00   0.1790985746E-01   0.8288166511E-04  -0.1057213523E-06   0.8288166511E-04  -0.1057213523E-06   0.2159541792E-01   0.5030218722E-02   0.0000000000E+00  -0.2801896958E-02
   0.1990558787E+00   0.8915630781E-02   0.8170233440E-04  -0.6954432352E-07   0.8170233440E-04  -0.6954432352E-07   0.1835232789E-01   0.3790902232E-02   0.0000000000E+00  -0.1687407171E-02
   0.2095312238E+00   0.8954927903E-02   0.8264488187E-04  -0.5326370578E-07   0.8264488187E-04  -0.5326370578E-07   0.2014293578E-01   0.4730161142E-02   0.0000000000E+00  -0.1491058787E-02
   0.2042554813E+00   0.1787053283E-01   0.8186164678E-04  -0.1357346971E-06   0.8186164678E-04  -0.1357346971E-06   0.2011865910E-01   0.4157628324E-02   0.0000000000E+00  -0.3181277447E-02
   0.1322407881E+00   0.4107394574E-01   0.7316504833E-04  -0.2934877938E-05   0.7316504833E-04  -0.2934877938E-05   0.1241900692E-01  -0.1157140276E-01   0.0000000000E+00  -0.1122449509E-01
   0.1252214549E+00   0.5989541161E-01   0.6725342818E-04  -0.5379092626E-05   0.6725342818E-04  -0.5379092626E-05   0.2363770522E-01  -0.1256009800E-01   0.0000000000E+00  -0.1393383115E-01
   0.1131412532E+00   0.3922043533E-01   0.7224811750E-04  -0.5309582513E-05   0.7224811750E-04  -0.5309582513E-05   0.6123204011E-02  -0.1852184611E-01   0.0000000000E+00  -0.7247138638E-02
   0.1287316111E+00   0.5048485377E-01   0.7045407154E-04  -0.4070365614E-05   0.7045407154E-04  -0.4070365614E-05   0.1762578403E-01  -0.1246592923E-01   0.0000000000E+00  -0.1254264724E-01
   0.1191813276E+00   0.4955806379E-01   0.6973731688E-04  -0.5274152879E-05   0.6973731688E-04  -0.5274152879E-05   0.1522949151E-01  -0.1435458886E-01   0.0000000000E+00  -0.1069955611E-01
   0.1226909168E+00   0.4014765822E-01   0.7265491985E-04  -0.3887439072E-05   0.7265491985E-04  -0.3887439072E-05   0.1027118074E-01  -0.1531629787E-01   0.0000000000E+00  -0.9491860209E-02
   0.1728835896E+00   0.1762976726E-01   0.7930629297E-04  -0.3117679855E-06   0.7930629297E-04  -0.3117679855E-06   0.1357879046E-01   0.2232667295E-03   0.0000000000E+00  -0.4450883000E-02
   0.1834945278E+00   0.0000000000E+00   0.8059539520E-04   0.0000000000E+00   0.8059539520E-04   0.0000000000E+00   0.1469292813E-01   0.2254211231E-02   0.0000000000E+00  -0.2531147890E-04
   0.1781893375E+00   0.8814946000E-02   0.8009376276E-04  -0.1247050533E-06   0.8009376276E-04  -0.1247050533E-06   0.1391578875E-01   0.1180504474E-02   0.0000000000E+00  -0.2083864220E-02
   0.1886375174E+00   0.8915584000E-02   0.8085021185E-04  -0.9293495741E-07   0.8085021185E-04  -0.9293495741E-07   0.1618760918E-01   0.2633300748E-02   0.0000000000E+00  -0.1909338697E-02
   0.1833317614E+00   0.1773050153E-01   0.8006568896E-04  -0.2323334354E-06   0.8006568896E-04  -0.2323334354E-06   0.1618353748E-01   0.1767803986E-02   0.0000000000E+00  -0.4005113897E-02
   0.9253124760E-01   0.3824600943E-01   0.7164785215E-04  -0.1116658727E-04   0.7164785215E-04  -0.1116658727E-04  -0.4141189879E-02  -0.2558521331E-01   0.0000000000E+00   0.8892251020E-02
   0.1075447471E+00   0.4801729413E-01   0.6919206380E-04  -0.7397987473E-05   0.6919206380E-04  -0.7397987473E-05   0.9779167796E-02  -0.1811390406E-01   0.0000000000E+00  -0.7839395146E-02
   0.9723932810E-01   0.4753004934E-01   0.6868574776E-04  -0.1034053221E-04   0.6868574776E-04  -0.1034053221E-04   0.5725523967E-02  -0.1753293465E-01   0.0000000000E+00  -0.1142731739E-02
   0.1028360472E+00   0.3873444269E-01   0.7184811355E-04  -0.7627904457E-05   0.7184811355E-04  -0.7627904457E-05   0.2516347597E-02  -0.2150470950E-01   0.0000000000E+00  -0.4470006481E-03
   0.3307438943E+00   0.2499783414E+00   0.9416817111E-04  -0.1082928881E-04   0.9416817111E-04  -0.1082928881E-04   0.6012528642E-01  -0.2659304470E-04   0.0000000000E+00  -0.2010097273E-04
   0.3501999940E+00   0.2307511280E+00   0.1000000000E-03  -0.9052014470E-05   0.1000000000E-03  -0.9052014470E-05   0.5805757376E-01   0.1366167560E-03   0.0000000000E+00  -0.1536260533E-04
   0.3501999940E+00   0.2499785012E+00   0.1000000000E-03  -0.1074938552E-04   0.1000000000E-03  -0.1074938552E-04   0.5990192690E-01   0.8283386256E-05   0.0000000000E+00   0.5141773416E-05
   0.3404720497E+00   0.2403647864E+00   0.9712935285E-04  -0.9911308274E-05   0.9712935285E-04  -0.9911308274E-05   0.5910882221E-01   0.5068546164E-04   0.0000000000E+00  -0.4991825722E-04
   0.3501999940E+00   0.2403648229E+00   0.1000000000E-03  -0.9893028741E-05   0.1000000000E-03  -0.9893028741E-05   0.5904959071E-01   0.5217188267E-04   0.0000000000E+00  -0.5447863315E-05
   0.3404719630E+00   0.2499784612E+00   0.9708601937E-04  -0.1076937579E-04   0.9708601937E-04  -0.1076937579E-04   0.5995751089E-01  -0.1159346589E-04   0.0000000000E+00  -0.3015290450E-04
   0.3242477442E+00   0.2323403019E+00   0.9244510249E-04  -0.9322559087E-05   0.9244510249E-04  -0.9322559087E-05   0.5844510841E-01   0.1086371710E-03   0.0000000000E+00  -0.3622165657E-03
   0.3112877294E+00   0.2499778605E+00   0.8830371631E-04  -0.1106974651E-04   0.8830371631E-04  -0.1106974651E-04   0.6061673735E-01  -0.2150294443E-04   0.0000000000E+00  -0.1897835779E-04
   0.3274957606E+00   0.2411593322E+00   0.9328481278E-04  -0.1006691552E-04   0.9328481278E-04  -0.1006691552E-04   0.5932664169E-01   0.4325287990E-04   0.0000000000E+00  -0.1741433236E-03
   0.3210158085E+00   0.2499781450E+00   0.9124173317E-04  -0.1092749739E-04   0.9124173317E-04  -0.1092749739E-04   0.6028206062E-01  -0.3662546432E-04   0.0000000000E+00  -0.2539017194E-04
   0.3177677807E+00   0.2411591118E+00   0.9039637433E-04  -0.1017710278E-04   0.9039637433E-04  -0.1017710278E-04   0.5956771971E-01   0.4972918511E-04   0.0000000000E+00  -0.2088295985E-03
   0.2834834021E+00   0.1997101767E+00   0.8194956768E-04  -0.7360651932E-05   0.8194956768E-04  -0.7360651932E-05   0.5499014338E-01   0.4911840482E-03   0.0000000000E+00  -0.1827266474E-02
   0.2731152409E+00   0.2161467153E+00   0.7816797165E-04  -0.9048359474E-05   0.7816797165E-04  -0.9048359474E-05   0.5772612792E-01   0.1610162389E-03   0.0000000000E+00  -0.1472922892E-02
   0.2634864024E+00   0.1994687687E+00   0.7645170029E-04  -0.8005673337E-05   0.7645170029E-04  -0.8005673337E-05   0.5556104352E-01   0.1994386348E-03   0.0000000000E+00  -0.2115282011E-02
   0.2782993703E+00   0.2079284894E+00   0.8008316336E-04  -0.8182814052E-05   0.8008316336E-04  -0.8182814052E-05   0.5636401393E-01   0.3057730350E-03   0.0000000000E+00  -0.1654699960E-02
   0.2683007577E+00   0.2078077667E+00   0.7727035662E-04  -0.8514626822E-05   0.7727035662E-04  -0.8514626822E-05   0.5666225271E-01   0.2142451150E-03   0.0000000000E+00  -0.1781500756E-02
   0.2734849329E+00   0.1995895321E+00   0.7920845045E-04  -0.7653439489E-05   0.7920845045E-04  -0.7653439489E-05   0.5525373909E-01   0.3384717097E-03   0.0000000000E+00  -0.1984076408E-02
   0.3157712496E+00   0.1923680824E+00   0.9092581009E-04  -0.6165275736E-05   0.9092581009E-04  -0.6165275736E-05   0.5323275053E-01   0.1001533123E-02   0.0000000000E+00  -0.1156596170E-02
   0.3333020300E+00   0.1825865537E+00   0.9568499948E-04  -0.5303158368E-05   0.9568499948E-04  -0.5303158368E-05   0.5157664665E-01   0.1446609982E-02   0.0000000000E+00  -0.6467592915E-03
   0.3333226063E+00   0.2016116750E+00   0.9543763742E-04  -0.6709502097E-05   0.9543763742E-04  -0.6709502097E-05   0.5438728149E-01   0.7995892255E-03   0.0000000000E+00  -0.5153685953E-03
   0.3245367114E+00   0.1874773664E+00   0.9334122367E-04  -0.5713785427E-05   0.9334122367E-04  -0.5713785427E-05   0.5240206143E-01   0.1234815449E-02   0.0000000000E+00  -0.9069193647E-03
   0.3333122980E+00   0.1920991577E+00   0.9555848523E-04  -0.5988672207E-05   0.9555848523E-04  -0.5988672207E-05   0.5297591675E-01   0.1103490543E-02   0.0000000000E+00  -0.5824021088E-03
   0.3245468524E+00   0.1969899127E+00   0.9315167752E-04  -0.6420662230E-05   0.9315167752E-04  -0.6420662230E-05   0.5381482120E-01   0.9119508934E-03   0.0000000000E+00  -0.8303513749E-03
   0.3334011512E+00   0.1634037819E+00   0.9598210722E-04  -0.4037046750E-05   0.9598210722E-04  -0.4037046750E-05   0.4856579417E-01   0.2235989642E-02   0.0000000000E+00  -0.7530621736E-03
   0.3501999940E+00   0.1730677050E+00   0.1000000000E-03  -0.4611494815E-05   0.1000000000E-03  -0.4611494815E-05   0.5005115420E-01   0.1867181246E-02   0.0000000000E+00  -0.2261876096E-05
   0.3333515883E+00   0.1729952083E+00   0.9583214574E-04  -0.4649841763E-05   0.9583214574E-04  -0.4649841763E-05   0.5006412700E-01   0.1819023012E-02   0.0000000000E+00  -0.7011514203E-03
   0.3418005036E+00   0.1682357734E+00   0.9795678736E-04  -0.4309323103E-05   0.9795678736E-04  -0.4309323103E-05   0.4931453257E-01   0.2063521587E-02   0.0000000000E+00  -0.3688171308E-03
   0.3417510798E+00   0.1778271630E+00   0.9787639324E-04  -0.4940519972E-05   0.9787639324E-04  -0.4940519972E-05   0.5081587809E-01   0.1667516610E-02   0.0000000000E+00  -0.3289734362E-03
   0.3501999940E+00   0.1538392965E+00   0.1000000000E-03  -0.3431725691E-05   0.1000000000E-03  -0.3431725691E-05   0.4698634225E-01   0.2731914614E-02   0.0000000000E+00  -0.2446280808E-05
   0.3418006431E+00   0.1586215629E+00   0.9802653965E-04  -0.3718553620E-05   0.9802653965E-04  -0.3718553620E-05   0.4777826742E-01   0.2495012427E-02   0.0000000000E+00  -0.3827097180E-03
   0.3501999940E+00   0.1634535356E+00   0.1000000000E-03  -0.4000197667E-05   0.1000000000E-03  -0.4000197667E-05   0.4851217394E-01   0.2277290466E-02   0.0000000000E+00  -0.1075585190E-05
   0.2678203147E+00   0.3629379950E-01   0.8846136649E-04  -0.1292514477E-06   0.8846136649E-04  -0.1292514477E-06   0.2872534092E-01   0.7104104815E-02   0.0000000000E+00  -0.2637721751E-02
   0.2622523374E+00   0.2715703157E-01   0.8803921269E-04  -0.7796430063E-07   0.8803921269E-04  -0.7796430063E-07   0.2751740106E-01   0.7155966815E-02   0.0000000000E+00  -0.2181569147E-02
   0.2672323949E+00   0.1799096619E-01   0.8888896095E-04  -0.3500478786E-07   0.8888896095E-04  -0.3500478786E-07   0.2739898060E-01   0.7655969511E-02   0.0000000000E+00  -0.1401143550E-02
   0.2728005454E+00   0.2712777426E-01   0.8939721453E-04  -0.6526832799E-07   0.8939721453E-04  -0.6526832799E-07   0.2832039075E-01   0.7520767644E-02   0.0000000000E+00  -0.1867861648E-02
   0.3165847030E+00   0.1346223750E+00   0.9280297873E-04  -0.2550514834E-05   0.9280297873E-04  -0.2550514834E-05   0.4398141257E-01   0.3419601189E-02   0.0000000000E+00  -0.1737314392E-02
   0.3165638969E+00   0.1154528569E+00   0.9336696440E-04  -0.1705534320E-05   0.9336696440E-04  -0.1705534320E-05   0.4085069053E-01   0.4426714984E-02   0.0000000000E+00  -0.1826596229E-02
   0.3334349044E+00   0.1250144011E+00   0.9655668865E-04  -0.2023443280E-05   0.9655668865E-04  -0.2023443280E-05   0.4234751792E-01   0.4134173883E-02   0.0000000000E+00  -0.8983164465E-03
   0.3165743030E+00   0.1250376626E+00   0.9308648983E-04  -0.2104718324E-05   0.9308648983E-04  -0.2104718324E-05   0.4240868989E-01   0.3898473664E-02   0.0000000000E+00  -0.1787279177E-02
   0.3249993477E+00   0.1202336484E+00   0.9492782813E-04  -0.1854796616E-05   0.9492782813E-04  -0.1854796616E-05   0.4161428860E-01   0.4295432912E-02   0.0000000000E+00  -0.1352684318E-02
   0.3250098940E+00   0.1298184276E+00   0.9471749821E-04  -0.2270709047E-05   0.9471749821E-04  -0.2270709047E-05   0.4315964607E-01   0.3786643711E-02   0.0000000000E+00  -0.1323055953E-02
   0.3501999940E+00   0.9615188773E-01   0.1000000000E-03  -0.9800850353E-06   0.1000000000E-03  -0.9800850353E-06   0.3789628707E-01   0.5772707141E-02   0.0000000000E+00  -0.3917018770E-05
   0.3333933335E+00   0.1057886935E+00   0.9682674815E-04  -0.1292234274E-05   0.9682674815E-04  -0.1292234274E-05   0.3932377623E-01   0.5176740470E-02   0.0000000000E+00  -0.9171162513E-03
   0.3417393673E+00   0.9135395040E-01   0.9850213167E-04  -0.8543483807E-06   0.9850213167E-04  -0.8543483807E-06   0.3721055976E-01   0.5999991080E-02   0.0000000000E+00  -0.4371808148E-03
   0.3417967165E+00   0.1009703126E+00   0.9844724330E-04  -0.1125216161E-05   0.9844724330E-04  -0.1125216161E-05   0.3860857192E-01   0.5481585972E-02   0.0000000000E+00  -0.4622823752E-03
   0.3333361204E+00   0.9617238187E-01   0.9694968961E-04  -0.9961645540E-06   0.9694968961E-04  -0.9961645540E-06   0.3791230231E-01   0.5679621021E-02   0.0000000000E+00  -0.9047675407E-03
   0.3501999940E+00   0.7692202483E-01   0.1000000000E-03  -0.5274858561E-06   0.1000000000E-03  -0.5274858561E-06   0.3526409727E-01   0.6774004039E-02   0.0000000000E+00  -0.4344297606E-05
   0.3415613616E+00   0.7206534922E-01   0.9859329525E-04  -0.4416892091E-06   0.9859329525E-04  -0.4416892091E-06   0.3464863172E-01   0.6977932351E-02   0.0000000000E+00  -0.3966540557E-03
   0.3417394914E+00   0.8173901994E-01   0.9856422281E-04  -0.6275306488E-06   0.9856422281E-04  -0.6275306488E-06   0.3588335132E-01   0.6495597313E-02   0.0000000000E+00  -0.4440919490E-03
   0.3320500704E+00   0.4723398392E-01   0.9731219647E-04  -0.1396894696E-06   0.9731219647E-04  -0.1396894696E-06   0.3194021129E-01   0.8005489303E-02   0.0000000000E+00  -0.6542577244E-03
   0.3501999940E+00   0.5769183600E-01   0.1000000000E-03  -0.2359975929E-06   0.1000000000E-03  -0.2359975929E-06   0.3303894620E-01   0.7660198581E-02   0.0000000000E+00  -0.5455530594E-05
   0.3411249816E+00   0.5246292101E-01   0.9863079952E-04  -0.1822940477E-06   0.9863079952E-04  -0.1822940477E-06   0.3249306240E-01   0.7832201736E-02   0.0000000000E+00  -0.3289448768E-03
   0.3415614692E+00   0.6245025651E-01   0.9864711898E-04  -0.2959925228E-06   0.9864711898E-04  -0.2959925228E-06   0.3352510347E-01   0.7414192349E-02   0.0000000000E+00  -0.3989596866E-03
   0.3324864654E+00   0.5722135729E-01   0.9728220542E-04  -0.2363037290E-06   0.9728220542E-04  -0.2363037290E-06   0.3297975903E-01   0.7589802883E-02   0.0000000000E+00  -0.7326275883E-03
   0.3411250675E+00   0.4284769260E-01   0.9867372981E-04  -0.1044991994E-06   0.9867372981E-04  -0.1044991994E-06   0.3164524942E-01   0.8173836346E-02   0.0000000000E+00  -0.3262193900E-03
   0.3318370912E+00   0.3670284126E-01   0.9736608823E-04  -0.7092158537E-07   0.9736608823E-04  -0.7092158537E-07   0.3119345301E-01   0.8320356664E-02   0.0000000000E+00  -0.5299046463E-03
   0.0000000000E+00   0.2499122745E+00   0.0000000000E+00  -0.4386272864E-04   0.0000000000E+00  -0.4386272864E-04   0.3465974454E-01  -0.1051849972E-04   0.0000000000E+00  -0.5458280403E-04
   0.9725614818E-02   0.2499125517E+00   0.1696124205E-05  -0.4372415114E-04   0.1696124205E-05  -0.4372415114E-04   0.3504772128E-01  -0.1001048772E-04   0.0000000000E+00   0.2267977068E-03
   0.0000000000E+00   0.2405382989E+00   0.0000000000E+00  -0.4334753236E-04   0.0000000000E+00  -0.4334753236E-04   0.3978158473E-01   0.3015591605E-03   0.0000000000E+00   0.1525960464E-04
   0.9726099184E-02   0.2405385950E+00   0.1938306896E-05  -0.4319949803E-04   0.1938306896E-05  -0.4319949803E-04   0.4027651953E-01   0.2682951132E-03   0.0000000000E+00   0.3166836942E-03
   0.3890298959E-01   0.2499166721E+00   0.7049646554E-05  -0.4166392637E-04   0.7049646554E-05  -0.4166392637E-04   0.3933346560E-01  -0.6122327928E-04   0.0000000000E+00   0.1309766010E-03
   0.4035569153E-01   0.2337516844E+00   0.8870766410E-05  -0.4047177866E-04   0.8870766410E-05  -0.4047177866E-04   0.4613974239E-01   0.3044782953E-03   0.0000000000E+00   0.2922788367E-02
   0.4372145731E-01   0.2414621959E+00   0.8935705616E-05  -0.4057854774E-04   0.8935705616E-05  -0.4057854774E-04   0.4365953379E-01   0.2164120900E-03   0.0000000000E+00   0.1726300851E-02
   0.3553747449E-01   0.2422061714E+00   0.7111895328E-05  -0.4155178637E-04   0.7111895328E-05  -0.4155178637E-04   0.4222647465E-01   0.1224930213E-03   0.0000000000E+00   0.1320319112E-02
   0.5555487807E-01   0.1230797023E+00   0.2468198533E-04  -0.2926934112E-04   0.2468198533E-04  -0.2926934112E-04   0.7942609744E-01   0.4115505708E-02   0.0000000000E+00  -0.7197654745E-03
   0.4632588558E-01   0.1177248170E+00   0.2245459016E-04  -0.3097398625E-04   0.2245459016E-04  -0.3097398625E-04   0.8558065306E-01   0.7350500320E-02   0.0000000000E+00  -0.5389488554E-02
   0.4637320868E-01   0.1070582740E+00   0.2621379123E-04  -0.3003199912E-04   0.2621379123E-04  -0.3003199912E-04   0.9075315722E-01   0.1116379432E-01   0.0000000000E+00  -0.1347350891E-01
   0.5560122550E-01   0.1124133638E+00   0.2795519858E-04  -0.2822161821E-04   0.2795519858E-04  -0.2822161821E-04   0.7925307094E-01   0.4794386604E-02   0.0000000000E+00  -0.7248839885E-02
   0.6784939633E-01   0.2328978702E+00   0.1559711600E-04  -0.3642238501E-04   0.1559711600E-04  -0.3642238501E-04   0.5081628969E-01   0.7798925220E-04   0.0000000000E+00   0.3973007882E-02
   0.5835550967E-01   0.2499217196E+00   0.1108803270E-04  -0.3914020307E-04   0.1108803270E-04  -0.3914020307E-04   0.4406326571E-01  -0.3917610145E-04   0.0000000000E+00   0.1872243214E-03
   0.6310249811E-01   0.2414097076E+00   0.1336605597E-04  -0.3782470592E-04   0.1336605597E-04  -0.3782470592E-04   0.4757370253E-01   0.9613293243E-04   0.0000000000E+00   0.2042891347E-02
   0.5344802476E-01   0.2414647799E+00   0.1110677916E-04  -0.3928653413E-04   0.1110677916E-04  -0.3928653413E-04   0.4584902800E-01   0.8544301734E-04   0.0000000000E+00   0.1855522963E-02
   0.5819460636E-01   0.2329527434E+00   0.1318137821E-04  -0.3798329940E-04   0.1318137821E-04  -0.3798329940E-04   0.4911522139E-01   0.1668621393E-03   0.0000000000E+00   0.3769202316E-02
   0.7780904438E-01   0.2499280089E+00   0.1563189166E-04  -0.3599554271E-04   0.1563189166E-04  -0.3599554271E-04   0.4948528783E-01   0.3873098450E-05   0.0000000000E+00   0.1879559776E-03
   0.8260992522E-01   0.2414440538E+00   0.1822586137E-04  -0.3450260176E-04   0.1822586137E-04  -0.3450260176E-04   0.5188495505E-01  -0.8885513134E-05   0.0000000000E+00   0.2034503048E-02
   0.7282946754E-01   0.2414129196E+00   0.1573811941E-04  -0.3621868341E-04   0.1573811941E-04  -0.3621868341E-04   0.5006808171E-01  -0.2758205893E-04   0.0000000000E+00   0.2070892430E-02
   0.7762991975E-01   0.2329289630E+00   0.1811777370E-04  -0.3472649132E-04   0.1811777370E-04  -0.3472649132E-04   0.5251225463E-01  -0.3005102887E-04   0.0000000000E+00   0.3971016066E-02
   0.1264402560E+00   0.2330775278E+00   0.3188799267E-04  -0.2571857825E-04   0.3188799267E-04  -0.2571857825E-04   0.5982641584E-01  -0.3649994224E-03   0.0000000000E+00   0.2508703667E-02
   0.1167191960E+00   0.2499420421E+00   0.2626450807E-04  -0.2897894413E-04   0.2626450807E-04  -0.2897894413E-04   0.5929649806E-01   0.6310001633E-04   0.0000000000E+00   0.1182919158E-03
   0.1215798606E+00   0.2415097763E+00   0.2914181525E-04  -0.2735285827E-04   0.2914181525E-04  -0.2735285827E-04   0.5948443136E-01  -0.1376991116E-03   0.0000000000E+00   0.1364578136E-02
   0.1118408130E+00   0.2415021508E+00   0.2627750282E-04  -0.2912461840E-04   0.2627750282E-04  -0.2912461840E-04   0.5812900036E-01  -0.1664080072E-03   0.0000000000E+00   0.1660325138E-02
   0.1167011562E+00   0.2330699163E+00   0.2899760426E-04  -0.2748284362E-04   0.2899760426E-04  -0.2748284362E-04   0.5873295792E-01  -0.2645476471E-03   0.0000000000E+00   0.2929166469E-02
   0.1361755346E+00   0.2499488192E+00   0.3221229971E-04  -0.2559038840E-04   0.3221229971E-04  -0.2559038840E-04   0.6271119847E-01   0.7052279787E-04   0.0000000000E+00   0.7433685049E-04
   0.1410388032E+00   0.2415112240E+00   0.3507612316E-04  -0.2399149900E-04   0.3507612316E-04  -0.2399149900E-04   0.6205443252E-01  -0.1530066705E-03   0.0000000000E+00   0.9047253568E-03
   0.1313079505E+00   0.2415132076E+00   0.3207773534E-04  -0.2563721896E-04   0.3207773534E-04  -0.2563721896E-04   0.6109998350E-01  -0.1796449283E-03   0.0000000000E+00   0.1229539498E-02
   0.1361709954E+00   0.2330756495E+00   0.3483019890E-04  -0.2402025614E-04   0.3483019890E-04  -0.2402025614E-04   0.6090803090E-01  -0.2908901551E-03   0.0000000000E+00   0.2067201267E-02
   0.1361606981E+00   0.2161860596E+00   0.3714706079E-04  -0.2241970560E-04   0.3714706079E-04  -0.2241970560E-04   0.6005481901E-01  -0.1389146073E-02   0.0000000000E+00   0.3173774458E-02
   0.1410312981E+00   0.2246298468E+00   0.3749305966E-04  -0.2240510305E-04   0.3749305966E-04  -0.2240510305E-04   0.6074583226E-01  -0.8945015927E-03   0.0000000000E+00   0.2345903356E-02
   0.1313005335E+00   0.2246317860E+00   0.3454576472E-04  -0.2407299477E-04   0.3454576472E-04  -0.2407299477E-04   0.5986406381E-01  -0.8841934018E-03   0.0000000000E+00   0.2889340577E-02
   0.1848217400E+00   0.2330672746E+00   0.5000102433E-04  -0.1696469990E-04   0.5000102433E-04  -0.1696469990E-04   0.6295882522E-01  -0.2466863587E-03   0.0000000000E+00   0.1013450919E-03
   0.1750896196E+00   0.2499603982E+00   0.4481128249E-04  -0.1980089288E-04   0.4481128249E-04  -0.1980089288E-04   0.6598500123E-01   0.5546402923E-04   0.0000000000E+00   0.5250798693E-05
   0.1799557593E+00   0.2415138685E+00   0.4744964598E-04  -0.1836324651E-04   0.4744964598E-04  -0.1836324651E-04   0.6437666978E-01  -0.1186789298E-03   0.0000000000E+00   0.9893465603E-04
   0.1702253321E+00   0.2415142267E+00   0.4432105516E-04  -0.1961465816E-04   0.4432105516E-04  -0.1961465816E-04   0.6419032276E-01  -0.1348910432E-03   0.0000000000E+00   0.3499497249E-03
   0.1750914392E+00   0.2330677259E+00   0.4693558535E-04  -0.1816202669E-04   0.4693558535E-04  -0.1816202669E-04   0.6294791812E-01  -0.2233923779E-03   0.0000000000E+00   0.4330858721E-03
   0.2042823761E+00   0.2330746179E+00   0.5612657179E-04  -0.1489503433E-04   0.5612657179E-04  -0.1489503433E-04   0.6276636631E-01  -0.1677543746E-03   0.0000000000E+00  -0.4022752982E-03
   0.1945469395E+00   0.2499649668E+00   0.5124577185E-04  -0.1751657807E-04   0.5124577185E-04  -0.1751657807E-04   0.6613865609E-01   0.4097167562E-04   0.0000000000E+00  -0.1498896550E-04
   0.1994147314E+00   0.2415198364E+00   0.5371922134E-04  -0.1618380794E-04   0.5371922134E-04  -0.1618380794E-04   0.6437696544E-01  -0.8706126957E-04   0.0000000000E+00  -0.1747737712E-03
   0.1896842629E+00   0.2415161539E+00   0.5058494584E-04  -0.1722055244E-04   0.5058494584E-04  -0.1722055244E-04   0.6447416123E-01  -0.9741336252E-04   0.0000000000E+00   0.9117897543E-05
   0.1945520716E+00   0.2330710456E+00   0.5306678679E-04  -0.1587621340E-04   0.5306678679E-04  -0.1587621340E-04   0.6298308210E-01  -0.1631738676E-03   0.0000000000E+00  -0.1641525967E-03
   0.2237418984E+00   0.2330897694E+00   0.6220971045E-04  -0.1323481591E-04   0.6220971045E-04  -0.1323481591E-04   0.6220362170E-01  -0.9374434240E-04   0.0000000000E+00  -0.7192583322E-03
   0.2140042021E+00   0.2499687146E+00   0.5765904208E-04  -0.1564270311E-04   0.5765904208E-04  -0.1564270311E-04   0.6562376482E-01   0.2597844162E-04   0.0000000000E+00  -0.2640490842E-04
   0.2188731057E+00   0.2415292874E+00   0.5995836130E-04  -0.1441628840E-04   0.5995836130E-04  -0.1441628840E-04   0.6386093698E-01  -0.5491515536E-04   0.0000000000E+00  -0.3511599363E-03
   0.2091431873E+00   0.2415217030E+00   0.5684565028E-04  -0.1525051596E-04   0.5684565028E-04  -0.1525051596E-04   0.6415439416E-01  -0.6017286751E-04   0.0000000000E+00  -0.2355034192E-03
   0.2140121522E+00   0.2330822918E+00   0.5917558036E-04  -0.1401611052E-04   0.5917558036E-04  -0.1401611052E-04   0.6256373781E-01  -0.1026018884E-03   0.0000000000E+00  -0.5740385081E-03
   0.2432154632E+00   0.2331033748E+00   0.6822809089E-04  -0.1193809050E-04   0.6822809089E-04  -0.1193809050E-04   0.6142665011E-01  -0.3093788716E-04   0.0000000000E+00  -0.8689179258E-03
   0.2334613310E+00   0.2499717043E+00   0.6399848864E-04  -0.1414784247E-04   0.6399848864E-04  -0.1414784247E-04   0.6469145567E-01   0.1224993208E-04   0.0000000000E+00  -0.3088965420E-04
   0.2383384388E+00   0.2415375753E+00   0.6613042450E-04  -0.1302134892E-04   0.6613042450E-04  -0.1302134892E-04   0.6302867978E-01  -0.2601164582E-04   0.0000000000E+00  -0.4392767547E-03
   0.2286015145E+00   0.2415307699E+00   0.6305372712E-04  -0.1367506398E-04   0.6305372712E-04  -0.1367506398E-04   0.6343505760E-01  -0.2733081333E-04   0.0000000000E+00  -0.3847386061E-03
   0.2334787077E+00   0.2330966653E+00   0.6522887028E-04  -0.1254383489E-04   0.6522887028E-04  -0.1254383489E-04   0.6185459108E-01  -0.4881757431E-04   0.0000000000E+00  -0.8056771050E-03
   0.2628519726E+00   0.2330417248E+00   0.7421729943E-04  -0.1094161574E-04   0.7421729943E-04  -0.1094161574E-04   0.6055794630E-01   0.1933595528E-04   0.0000000000E+00  -0.8832286758E-03
   0.2529182546E+00   0.2499740235E+00   0.7023481993E-04  -0.1298825130E-04   0.7023481993E-04  -0.1298825130E-04   0.6356396392E-01   0.5028445311E-06   0.0000000000E+00  -0.3053912002E-04
   0.2578851547E+00   0.2415079149E+00   0.7223934237E-04  -0.1194456678E-04   0.7223934237E-04  -0.1194456678E-04   0.6205039781E-01  -0.1741702780E-05   0.0000000000E+00  -0.4555804966E-03
   0.2480667601E+00   0.2415387201E+00   0.6918205093E-04  -0.1244896986E-04   0.6918205093E-04  -0.1244896986E-04   0.6250447485E-01  -0.6726663693E-06   0.0000000000E+00  -0.4499019488E-03
   0.2530337398E+00   0.2330726307E+00   0.7123390503E-04  -0.1140314663E-04   0.7123390503E-04  -0.1140314663E-04   0.6099778018E-01  -0.5004547743E-05   0.0000000000E+00  -0.8855648260E-03
   0.2827370789E+00   0.2328444389E+00   0.8019942676E-04  -0.1019404027E-04   0.8019942676E-04  -0.1019404027E-04   0.5970670773E-01   0.5907090264E-04   0.0000000000E+00  -0.7920527893E-03
   0.2723749380E+00   0.2499757662E+00   0.7635849650E-04  -0.1211691208E-04   0.7635849650E-04  -0.1211691208E-04   0.6242315541E-01  -0.9196006849E-05   0.0000000000E+00  -0.2762398059E-04
   0.2775560340E+00   0.2414101405E+00   0.7829148909E-04  -0.1113623745E-04   0.7829148909E-04  -0.1113623745E-04   0.6107055243E-01   0.1836627483E-04   0.0000000000E+00  -0.4161308671E-03
   0.2676133638E+00   0.2415087701E+00   0.7524241940E-04  -0.1151695311E-04   0.7524241940E-04  -0.1151695311E-04   0.6151490790E-01   0.1944471453E-04   0.0000000000E+00  -0.4482272552E-03
   0.2727945483E+00   0.2329431451E+00   0.7721962801E-04  -0.1053646667E-04   0.7721962801E-04  -0.1053646667E-04   0.6011005490E-01   0.2969054660E-04   0.0000000000E+00  -0.8450955150E-03
   0.3031298411E+00   0.2323277804E+00   0.8625755327E-04  -0.9637814924E-05   0.8625755327E-04  -0.9637814924E-05   0.5894427193E-01   0.9127366275E-04   0.0000000000E+00  -0.6221440988E-03
   0.2918314081E+00   0.2499770205E+00   0.8237555165E-04  -0.1148977107E-04   0.8237555165E-04  -0.1148977107E-04   0.6140738125E-01  -0.1747680506E-04   0.0000000000E+00  -0.2414336689E-04
   0.2974806551E+00   0.2411524465E+00   0.8433203142E-04  -0.1054474260E-04   0.8433203142E-04  -0.1054474260E-04   0.6019496835E-01   0.3677352435E-04   0.0000000000E+00  -0.3357115135E-03
   0.2872841496E+00   0.2414107509E+00   0.8124777936E-04  -0.1083105786E-04   0.8124777936E-04  -0.1083105786E-04   0.6059256789E-01   0.3322165082E-04   0.0000000000E+00  -0.3953154920E-03
   0.2929334667E+00   0.2325861572E+00   0.8323935349E-04  -0.9888415212E-05   0.8323935349E-04  -0.9888415212E-05   0.5927914431E-01   0.5872104662E-04   0.0000000000E+00  -0.7133090224E-03
   0.3072087199E+00   0.2411528484E+00   0.8724794342E-04  -0.1034381112E-04   0.8724794342E-04  -0.1034381112E-04   0.5981987566E-01   0.4358107361E-04   0.0000000000E+00  -0.3034806245E-03
   0.3136888059E+00   0.2323340914E+00   0.8935796490E-04  -0.9455301815E-05   0.8935796490E-04  -0.9455301815E-05   0.5864412929E-01   0.7779929283E-04   0.0000000000E+00  -0.4969463597E-03
   0.6353951337E-01   0.7725229535E-01   0.5009073418E-04  -0.2437617563E-04   0.5009073418E-04  -0.2437617563E-04   0.3881113034E-01   0.2300871559E-01   0.0000000000E+00  -0.2908390992E-01
   0.7742213126E-01   0.6340065387E-01   0.6054177896E-04  -0.1933901623E-04   0.6054177896E-04  -0.1933901623E-04   0.8838987377E-02   0.8798376799E-02   0.0000000000E+00  -0.9232816220E-02
   0.8832925288E-01   0.4711180410E-01   0.6856263840E-04  -0.1393514769E-04   0.6856263840E-04  -0.1393514769E-04  -0.4044922931E-02  -0.1617097327E-01   0.0000000000E+00   0.6518241440E-02
   0.1653701805E+00   0.1646695727E+00   0.5281676440E-04  -0.1251712547E-04   0.5281676440E-04  -0.1251712547E-04   0.5651221843E-01  -0.5144814019E-02   0.0000000000E+00  -0.1412593667E-02
   0.1554613296E+00   0.1822155065E+00   0.4742480703E-04  -0.1580526411E-04   0.4742480703E-04  -0.1580526411E-04   0.5869259915E-01  -0.4125485785E-02   0.0000000000E+00   0.9224687564E-03
   0.1453311062E+00   0.1647918787E+00   0.4686758041E-04  -0.1536466365E-04   0.4686758041E-04  -0.1536466365E-04   0.5867241835E-01  -0.6146045757E-02   0.0000000000E+00   0.3596594120E-03
   0.1604157329E+00   0.1734425741E+00   0.5010946562E-04  -0.1414047147E-04   0.5010946562E-04  -0.1414047147E-04   0.5761706503E-01  -0.4686128693E-02   0.0000000000E+00  -0.2507491446E-03
   0.1503961637E+00   0.1735036790E+00   0.4711532751E-04  -0.1559550531E-04   0.4711532751E-04  -0.1559550531E-04   0.5872711939E-01  -0.5058746022E-02   0.0000000000E+00   0.6745282126E-03
   0.1553507131E+00   0.1647308686E+00   0.4987307076E-04  -0.1386967953E-04   0.4987307076E-04  -0.1386967953E-04   0.5748414424E-01  -0.5677262837E-02   0.0000000000E+00  -0.5639472500E-03
   0.2251685361E+00   0.0000000000E+00   0.8427104197E-04   0.0000000000E+00   0.8427104197E-04   0.0000000000E+00   0.2232185520E-01   0.6026212003E-02   0.0000000000E+00  -0.1185133056E-05
   0.2147498008E+00   0.0000000000E+00   0.8323190857E-04   0.0000000000E+00   0.8323190857E-04   0.0000000000E+00   0.2093562101E-01   0.5353025662E-02   0.0000000000E+00  -0.8475337247E-05
   0.2199499266E+00   0.8954952518E-02   0.8366030187E-04  -0.4095621874E-07   0.8366030187E-04  -0.4095621874E-07   0.2183292816E-01   0.5506960079E-02   0.0000000000E+00  -0.1321780846E-02
   0.2304121812E+00   0.8969887355E-02   0.8474861239E-04  -0.3203254686E-07   0.8474861239E-04  -0.3203254686E-07   0.2321896332E-01   0.6148231647E-02   0.0000000000E+00  -0.1146846800E-02
   0.2355874188E+00   0.0000000000E+00   0.8537641284E-04   0.0000000000E+00   0.8537641284E-04   0.0000000000E+00   0.2382640718E-01   0.6614010248E-02   0.0000000000E+00  -0.6493226177E-05
   0.9584197729E-01   0.2901172156E-01   0.7397099557E-04  -0.8373118130E-05   0.7397099557E-04  -0.8373118130E-05  -0.5520995531E-02  -0.4197627999E-01   0.0000000000E+00   0.1151959068E-01
   0.1056863137E+00   0.2935877434E-01   0.7433785015E-04  -0.5634530888E-05   0.7433785015E-04  -0.5634530888E-05   0.1298502713E-02  -0.2871949617E-01   0.0000000000E+00   0.8351729630E-04
   0.1615690417E+00   0.7204794205E-01   0.6969886719E-04  -0.3169873530E-05   0.6969886719E-04  -0.3169873530E-05   0.3153892518E-01  -0.6159973072E-02   0.0000000000E+00  -0.1235996441E-01
   0.1831914616E+00   0.7144525715E-01   0.7334282278E-04  -0.2119375308E-05   0.7334282278E-04  -0.2119375308E-05   0.3125500133E-01  -0.2487264787E-02   0.0000000000E+00  -0.1050225907E-01
   0.1726876056E+00   0.9033499143E-01   0.6792729353E-04  -0.3999834427E-05   0.6792729353E-04  -0.3999834427E-05   0.3852317821E-01  -0.5546420609E-02   0.0000000000E+00  -0.1065901153E-01
   0.1723803012E+00   0.7174672989E-01   0.7154208393E-04  -0.2581353691E-05   0.7154208393E-04  -0.2581353691E-05   0.3129245385E-01  -0.4328535147E-02   0.0000000000E+00  -0.1144718910E-01
   0.1779397801E+00   0.8089031584E-01   0.7075453297E-04  -0.2963829285E-05   0.7075453297E-04  -0.2963829285E-05   0.3496035281E-01  -0.4059986678E-02   0.0000000000E+00  -0.1061180554E-01
   0.1671281389E+00   0.8119148979E-01   0.6872095718E-04  -0.3571456280E-05   0.6872095718E-04  -0.3571456280E-05   0.3518086760E-01  -0.5790937287E-02   0.0000000000E+00  -0.1145691118E-01
   0.1739787217E-01   0.2040315228E+00   0.4599337105E-05  -0.4059310646E-04   0.4599337105E-05  -0.4059310646E-04   0.5438437844E-01   0.4137547700E-02   0.0000000000E+00   0.2820241898E-02
   0.0000000000E+00   0.1936689424E+00   0.0000000000E+00  -0.4052577947E-04   0.0000000000E+00  -0.4052577947E-04   0.5738701513E-01   0.6319956698E-02   0.0000000000E+00   0.4925779379E-04
   0.1684278310E-01   0.1844477778E+00   0.4895351658E-05  -0.3949657975E-04   0.4895351658E-05  -0.3949657975E-04   0.6050110621E-01   0.7412692369E-02   0.0000000000E+00   0.3179447089E-02
   0.8699049172E-02   0.1988499902E+00   0.2356211199E-05  -0.4068038252E-04   0.2356211199E-05  -0.4068038252E-04   0.5588099407E-01   0.5298912655E-02   0.0000000000E+00   0.1446903578E-02
   0.8421278492E-02   0.1890580941E+00   0.2391135985E-05  -0.4014443660E-04   0.2391135985E-05  -0.4014443660E-04   0.5898982794E-01   0.6968615151E-02   0.0000000000E+00   0.1526334187E-02
   0.1712033189E-01   0.1942396849E+00   0.4749946437E-05  -0.4002753789E-04   0.4749946437E-05  -0.4002753789E-04   0.5740058697E-01   0.5624181926E-02   0.0000000000E+00   0.3008497573E-02
   0.0000000000E+00   0.1749208483E+00   0.0000000000E+00  -0.3957436877E-04   0.0000000000E+00  -0.3957436877E-04   0.6367770972E-01   0.9930271116E-02   0.0000000000E+00   0.7022352185E-04
   0.1691770468E-01   0.1652471478E+00   0.5433840441E-05  -0.3851660756E-04   0.5433840441E-05  -0.3851660756E-04   0.6743783694E-01   0.1085469577E-01   0.0000000000E+00   0.3307988617E-02
   0.8421499723E-02   0.1796840560E+00   0.2501751495E-05  -0.3966049630E-04   0.2501751495E-05  -0.3966049630E-04   0.6208592983E-01   0.8762429153E-02   0.0000000000E+00   0.1638488280E-02
   0.8458700810E-02   0.1700836797E+00   0.2641154873E-05  -0.3920115345E-04   0.2641154873E-05  -0.3920115345E-04   0.6564824118E-01   0.1053006921E-01   0.0000000000E+00   0.1555725492E-02
   0.1688020272E-01   0.1748474938E+00   0.5144458649E-05  -0.3899108175E-04   0.5144458649E-05  -0.3899108175E-04   0.6394367487E-01   0.8978251025E-02   0.0000000000E+00   0.3246438769E-02
   0.9126088531E-02   0.1309612809E+00   0.3957165492E-05  -0.3739605718E-04   0.3957165492E-05  -0.3739605718E-04   0.9025641452E-01   0.1612571986E-01   0.0000000000E+00  -0.8321265524E-03
   0.0000000000E+00   0.1280500612E+00   0.0000000000E+00  -0.3746791547E-04   0.0000000000E+00  -0.3746791547E-04   0.9781038158E-01   0.1661345183E-01   0.0000000000E+00  -0.1811117806E-03
   0.2702959218E-01   0.2198941708E+00   0.6543291013E-05  -0.4090359541E-04   0.6543291013E-05  -0.4090359541E-04   0.4981542837E-01   0.1705076077E-02   0.0000000000E+00   0.3274962662E-02
   0.1746209679E-01   0.2142420270E+00   0.4362144404E-05  -0.4122347640E-04   0.4362144404E-05  -0.4122347640E-04   0.5091900248E-01   0.2665774086E-02   0.0000000000E+00   0.2436113644E-02
   0.2696568638E-01   0.2096837300E+00   0.6940789235E-05  -0.4024098375E-04   0.6940789235E-05  -0.4024098375E-04   0.5303460670E-01   0.3005383103E-02   0.0000000000E+00   0.3748079360E-02
   0.8459001810E-02   0.1607095213E+00   0.2791655126E-05  -0.3878483991E-04   0.2791655126E-05  -0.3878483991E-04   0.6962352774E-01   0.1233390393E-01   0.0000000000E+00   0.1719316233E-02
   0.1718581507E-01   0.1554135124E+00   0.5878686239E-05  -0.3803328350E-04   0.5878686239E-05  -0.3803328350E-04   0.7247987595E-01   0.1231604698E-01   0.0000000000E+00   0.3024455901E-02
   0.3381764094E-01   0.1749149944E+00   0.1034677034E-04  -0.3732330859E-04   0.1034677034E-04  -0.3732330859E-04   0.6385490768E-01   0.6891554598E-02   0.0000000000E+00   0.5958545772E-02
   0.3460952013E-01   0.1551695432E+00   0.1186191429E-04  -0.3600290311E-04   0.1186191429E-04  -0.3600290311E-04   0.7122767000E-01   0.9166402783E-02   0.0000000000E+00   0.5622609022E-02
   0.2536777506E-01   0.1700808763E+00   0.7940930565E-05  -0.3801732525E-04   0.7940930565E-05  -0.3801732525E-04   0.6553102893E-01   0.8903434002E-02   0.0000000000E+00   0.4635437317E-02
   0.2576339747E-01   0.1602079750E+00   0.8540884286E-05  -0.3744499743E-04   0.8540884286E-05  -0.3744499743E-04   0.6959156434E-01   0.1017929868E-01   0.0000000000E+00   0.4332090145E-02
   0.3421343723E-01   0.1650422657E+00   0.1103361690E-04  -0.3666464668E-04   0.1103361690E-04  -0.3666464668E-04   0.6749510413E-01   0.7973824316E-02   0.0000000000E+00   0.5849602967E-02
   0.0000000000E+00   0.1655466976E+00   0.0000000000E+00  -0.3915417566E-04   0.0000000000E+00  -0.3915417566E-04   0.6774942443E-01   0.1159561446E-01   0.0000000000E+00   0.2000327317E-04
   0.3375300918E-01   0.1941768642E+00   0.9420142184E-05  -0.3855089484E-04   0.9420142184E-05  -0.3855089484E-04   0.5796184752E-01   0.4406025684E-02   0.0000000000E+00   0.5481514323E-02
   0.2557531925E-01   0.1991039676E+00   0.6948575653E-05  -0.3968868590E-04   0.6948575653E-05  -0.3968868590E-04   0.5625522836E-01   0.4370132252E-02   0.0000000000E+00   0.4103759847E-02
   0.2529798353E-01   0.1893121266E+00   0.7201465088E-05  -0.3911721516E-04   0.7201465088E-05  -0.3911721516E-04   0.5916681470E-01   0.5951515706E-02   0.0000000000E+00   0.4346936557E-02
   0.0000000000E+00   0.1842949267E+00   0.0000000000E+00  -0.4003064527E-04   0.0000000000E+00  -0.4003064527E-04   0.6049636849E-01   0.7942577313E-02   0.0000000000E+00   0.2129954286E-04
   0.8698826007E-02   0.2082238887E+00   0.2244628524E-05  -0.4123417308E-04   0.2244628524E-05  -0.4123417308E-04   0.5290050509E-01   0.3746331618E-02   0.0000000000E+00   0.1368128651E-02
   0.0000000000E+00   0.2030428865E+00   0.0000000000E+00  -0.4105676179E-04   0.0000000000E+00  -0.4105676179E-04   0.5432064758E-01   0.4610715722E-02   0.0000000000E+00   0.2264940968E-04
   0.5388303375E-01   0.1449469906E+00   0.1977147497E-04  -0.3171071379E-04   0.1977147497E-04  -0.3171071379E-04   0.7312701119E-01   0.4254832285E-02   0.0000000000E+00   0.5731776462E-02
   0.5471829776E-01   0.1340132767E+00   0.2189762856E-04  -0.3052666668E-04   0.2189762856E-04  -0.3052666668E-04   0.7619017634E-01   0.4017052064E-02   0.0000000000E+00   0.2940408399E-02
   0.4492107253E-01   0.1396180199E+00   0.1727526440E-04  -0.3312004631E-04   0.1727526440E-04  -0.3312004631E-04   0.7638930364E-01   0.7135088636E-02   0.0000000000E+00   0.3908734260E-02
   0.4575655587E-01   0.1286840639E+00   0.1951108473E-04  -0.3205704644E-04   0.1951108473E-04  -0.3205704644E-04   0.8190946239E-01   0.8023543911E-02   0.0000000000E+00   0.8742387881E-03
   0.9716408687E-01   0.2160717982E+00   0.2560013571E-04  -0.2964639449E-04   0.2560013571E-04  -0.2964639449E-04   0.5751303799E-01  -0.8585092524E-03   0.0000000000E+00   0.5722545788E-02
   0.1020632524E+00   0.2245670051E+00   0.2594221835E-04  -0.2946993360E-04   0.2594221835E-04  -0.2946993360E-04   0.5733471774E-01  -0.6624938652E-03   0.0000000000E+00   0.4470394029E-02
   0.9228737737E-01   0.2245159558E+00   0.2317543623E-04  -0.3132411929E-04   0.2317543623E-04  -0.3132411929E-04   0.5583793074E-01  -0.4275138412E-03   0.0000000000E+00   0.4805794671E-02
   0.1418236664E+00   0.0000000000E+00   0.7850022317E-04   0.0000000000E+00   0.7850022317E-04   0.0000000000E+00   0.3002264979E-02  -0.7904629552E-02   0.0000000000E+00  -0.4084480042E-03
   0.1314064376E+00   0.0000000000E+00   0.7822180430E-04   0.0000000000E+00   0.7822180430E-04   0.0000000000E+00   0.5407488205E-03  -0.1583109289E-01   0.0000000000E+00   0.2086294048E-03
   0.1354398202E+00   0.1073191522E-01   0.7796657889E-04  -0.6732398048E-06   0.7796657889E-04  -0.6732398048E-06   0.2257660090E-02  -0.1152500096E-01   0.0000000000E+00  -0.2554485298E-02
   0.1522083210E+00   0.1778422307E-01   0.7807097841E-04  -0.6099635446E-06   0.7807097841E-04  -0.6099635446E-06   0.8252637013E-02  -0.4487901683E-02   0.0000000000E+00  -0.5342034223E-02
   0.1626586504E+00   0.0000000000E+00   0.7932820699E-04   0.0000000000E+00   0.7932820699E-04   0.0000000000E+00   0.9327166380E-02  -0.1431104585E-02   0.0000000000E+00  -0.1003002740E-03
   0.1574338817E+00   0.8892228220E-02   0.7889384100E-04  -0.2466397899E-06   0.7889384100E-04  -0.2466397899E-06   0.8491240340E-02  -0.3104687875E-02   0.0000000000E+00  -0.2447659335E-02
   0.1677713722E+00   0.8814849465E-02   0.7943959799E-04  -0.1729727414E-06   0.7943959799E-04  -0.1729727414E-06   0.1122332251E-01  -0.6749262144E-03   0.0000000000E+00  -0.2372987494E-02
   0.1625458577E+00   0.1770705485E-01   0.7863986859E-04  -0.4314752936E-06   0.7863986859E-04  -0.4314752936E-06   0.1135227577E-01  -0.2058845480E-02   0.0000000000E+00  -0.4873772046E-02
   0.2564255300E+00   0.0000000000E+00   0.8775298552E-04   0.0000000000E+00   0.8775298552E-04   0.0000000000E+00   0.2602703879E-01   0.7499804155E-02   0.0000000000E+00  -0.5817799604E-05
   0.2617646101E+00   0.9010128238E-02   0.8834605536E-04  -0.1558576883E-07   0.8834605536E-04  -0.1558576883E-07   0.2655721787E-01   0.7534916522E-02   0.0000000000E+00  -0.7641014629E-03
   0.3501999940E+00   0.1153813932E+00   0.1000000000E-03  -0.1611415606E-05   0.1000000000E-03  -0.1611415606E-05   0.4080673749E-01   0.4726240530E-02   0.0000000000E+00  -0.3403568742E-05
   0.3417965809E+00   0.1105850636E+00   0.9837946977E-04  -0.1441690771E-05   0.9837946977E-04  -0.1441690771E-05   0.4007300961E-01   0.4962294750E-02   0.0000000000E+00  -0.4515647182E-03
   0.3418175201E+00   0.1201979189E+00   0.9831407416E-04  -0.1804551668E-05   0.9831407416E-04  -0.1804551668E-05   0.4157745371E-01   0.4439814110E-02   0.0000000000E+00  -0.4545575050E-03
   0.3334141062E+00   0.1154015902E+00   0.9669310523E-04  -0.1634413832E-05   0.9669310523E-04  -0.1634413832E-05   0.4082970501E-01   0.4635724695E-02   0.0000000000E+00  -0.9105801441E-03
   0.3501999940E+00   0.1346105330E+00   0.1000000000E-03  -0.2429008462E-05   0.1000000000E-03  -0.2429008462E-05   0.4387313264E-01   0.3696507546E-02   0.0000000000E+00  -0.2843793629E-05
   0.3334552050E+00   0.1442240679E+00   0.9627649932E-04  -0.2940528147E-05   0.9627649932E-04  -0.2940528147E-05   0.4546244865E-01   0.3140451510E-02   0.0000000000E+00  -0.8387022994E-03
   0.3418173787E+00   0.1298124913E+00   0.9824334355E-04  -0.2214335718E-05   0.9824334355E-04  -0.2214335718E-05   0.4311757206E-01   0.3927683078E-02   0.0000000000E+00  -0.4412863048E-03
   0.3418276718E+00   0.1394173295E+00   0.9817442019E-04  -0.2670253158E-05   0.9817442019E-04  -0.2670253158E-05   0.4466938563E-01   0.3429364519E-02   0.0000000000E+00  -0.4255785597E-03
   0.3334450545E+00   0.1346192803E+00   0.9641677197E-04  -0.2458849461E-05   0.9641677197E-04  -0.2458849461E-05   0.4389822538E-01   0.3614472809E-02   0.0000000000E+00  -0.8704680767E-03
   0.2251932368E+00   0.1792481963E-01   0.8397040390E-04  -0.8358346397E-07   0.8397040390E-04  -0.8358346397E-07   0.2320142229E-01   0.5753383661E-02   0.0000000000E+00  -0.2469389701E-02
   0.1939127639E+00   0.0000000000E+00   0.8138497251E-04   0.0000000000E+00   0.8138497251E-04   0.0000000000E+00   0.1719724477E-01   0.3484805659E-02   0.0000000000E+00  -0.1183004716E-04
   0.1799559581E+00   0.2246065619E+00   0.4947852822E-04  -0.1674005427E-04   0.4947852822E-04  -0.1674005427E-04   0.6175667783E-01  -0.6350300127E-03   0.0000000000E+00   0.2855706680E-03
   0.1623981574E+00   0.3474072645E-01   0.7676968256E-04  -0.9858267778E-06   0.7676968256E-04  -0.9858267778E-06   0.1562202787E-01  -0.2850414474E-02   0.0000000000E+00  -0.8834682989E-02
   0.1831724095E+00   0.3537134313E-01   0.7856877007E-04  -0.5948840154E-06   0.7856877007E-04  -0.5948840154E-06   0.1951129853E-01   0.7314862729E-03   0.0000000000E+00  -0.7362829881E-02
   0.1676412208E+00   0.2618537159E-01   0.7821538872E-04  -0.5864029065E-06   0.7821538872E-04  -0.5864029065E-06   0.1439439000E-01  -0.1407239483E-02   0.0000000000E+00  -0.6510388628E-02
   0.1780281148E+00   0.2650056940E-01   0.7899489413E-04  -0.4462479552E-06   0.7899489413E-04  -0.4462479552E-06   0.1638857556E-01   0.4320832666E-03   0.0000000000E+00  -0.6012321354E-02
   0.1727852144E+00   0.3505609925E-01   0.7763118091E-04  -0.7581261643E-06   0.7763118091E-04  -0.7581261643E-06   0.1788399017E-01  -0.9786944243E-03   0.0000000000E+00  -0.8088496620E-02
   0.1730764815E+00   0.0000000000E+00   0.7990773838E-04   0.0000000000E+00   0.7990773838E-04   0.0000000000E+00   0.1245347079E-01   0.5086860096E-03   0.0000000000E+00  -0.1481015042E-04
   0.1449450512E+00   0.3344250911E-01   0.7563610300E-04  -0.1566146386E-05   0.7563610300E-04  -0.1566146386E-05   0.1156132531E-01  -0.7326480828E-02   0.0000000000E+00  -0.9451218631E-02
   0.1385930799E+00   0.3725840260E-01   0.7447696885E-04  -0.2163849941E-05   0.7447696885E-04  -0.2163849941E-05   0.1179109668E-01  -0.9436871891E-02   0.0000000000E+00  -0.1017520665E-01
   0.1306480503E+00   0.3126850935E-01   0.7513364744E-04  -0.2330973215E-05   0.7513364744E-04  -0.2330973215E-05   0.7612630597E-02  -0.1246394060E-01   0.0000000000E+00  -0.8900771199E-02
   0.1369997220E+00   0.2745279990E-01   0.7613547837E-04  -0.1641251337E-05   0.7613547837E-04  -0.1641251337E-05   0.7172848324E-02  -0.1031415824E-01   0.0000000000E+00  -0.7559425393E-02
   0.1470163300E+00   0.8892006977E-02   0.7845401460E-04  -0.3572616209E-06   0.7845401460E-04  -0.3572616209E-06   0.5425928343E-02  -0.6369704822E-02   0.0000000000E+00  -0.2887862602E-02
   0.1522410581E+00   0.0000000000E+00   0.7886057092E-04   0.0000000000E+00   0.7886057092E-04   0.0000000000E+00   0.6671143480E-02  -0.4749048185E-02   0.0000000000E+00   0.1000359181E-04
   0.1210985823E+00   0.3034245530E-01   0.7482065490E-04  -0.3166802335E-05   0.7482065490E-04  -0.3166802335E-05   0.3316798450E-02  -0.1805696770E-01   0.0000000000E+00  -0.6554857717E-02
   0.1406313613E+00   0.1962395281E-01   0.7735862605E-04  -0.1015642941E-05   0.7735862605E-04  -0.1015642941E-05   0.5788538135E-02  -0.9159588687E-02   0.0000000000E+00  -0.5811028618E-02
   0.3501999940E+00   0.1442249679E+00   0.1000000000E-03  -0.2907571103E-05   0.1000000000E-03  -0.2907571103E-05   0.4542311039E-01   0.3191830315E-02   0.0000000000E+00  -0.9553202164E-06
   0.3418275295E+00   0.1490317018E+00   0.9810323791E-04  -0.3172623256E-05   0.9810323791E-04  -0.3172623256E-05   0.4623081733E-01   0.2948787576E-02   0.0000000000E+00  -0.4113540908E-03
   0.2140315846E+00   0.2161676709E+00   0.6079279363E-04  -0.1243657472E-04   0.6079279363E-04  -0.1243657472E-04   0.5985435125E-01  -0.4905015658E-03   0.0000000000E+00  -0.1087943083E-02
   0.2188866596E+00   0.2246287462E+00   0.6146030885E-04  -0.1282240170E-04   0.6146030885E-04  -0.1282240170E-04   0.6101210506E-01  -0.2597985366E-03   0.0000000000E+00  -0.9122137213E-03
   0.2091570273E+00   0.2246211853E+00   0.5848316372E-04  -0.1364536868E-04   0.5848316372E-04  -0.1364536868E-04   0.6126676819E-01  -0.3725313022E-03   0.0000000000E+00  -0.7159231526E-03
   0.3164560207E+00   0.1058351321E+00   0.9362437268E-04  -0.1352425665E-05   0.9362437268E-04  -0.1352425665E-05   0.3934010577E-01   0.4929187720E-02   0.0000000000E+00  -0.1835137508E-02
   0.3080153480E+00   0.1106674479E+00   0.9185151156E-04  -0.1574028445E-05   0.9185151156E-04  -0.1574028445E-05   0.4011585326E-01   0.4508984894E-02   0.0000000000E+00  -0.2286937088E-02
   0.3501999940E+00   0.1249960064E+00   0.1000000000E-03  -0.1996786216E-05   0.1000000000E-03  -0.1996786216E-05   0.4233382845E-01   0.4190933980E-02   0.0000000000E+00  -0.9118409341E-06
   0.3248135813E+00   0.9138666688E-01   0.9550515208E-04  -0.8836601950E-06   0.9550515208E-04  -0.8836601950E-06   0.3716329803E-01   0.5845385970E-02   0.0000000000E+00  -0.1357887761E-02
   0.3248706658E+00   0.1010030156E+00   0.9531791182E-04  -0.1161176287E-05   0.9531791182E-04  -0.1161176287E-05   0.3860026771E-01   0.5338025807E-02   0.0000000000E+00  -0.1364085243E-02
   0.3501999940E+00   0.1057666867E+00   0.1000000000E-03  -0.1272670158E-05   0.1000000000E-03  -0.1272670158E-05   0.3934668057E-01   0.5233179638E-02   0.0000000000E+00  -0.8752108797E-06
   0.2890627380E+00   0.3564821095E-01   0.9135901011E-04  -0.9357729048E-07   0.9135901011E-04  -0.9357729048E-07   0.2980558409E-01   0.7746110749E-02   0.0000000000E+00  -0.1827610525E-02
   0.2988300557E+00   0.5045175077E-01   0.9235437390E-04  -0.2016633039E-06   0.9235437390E-04  -0.2016633039E-06   0.3156969511E-01   0.7405623117E-02   0.0000000000E+00  -0.2012563709E-02
   0.3003334914E+00   0.3573249000E-01   0.9291917907E-04  -0.8335120801E-07   0.9291917907E-04  -0.8335120801E-07   0.3032958455E-01   0.7977973897E-02   0.0000000000E+00  -0.1472211295E-02
   0.3052172037E+00   0.4313428093E-01   0.9345885443E-04  -0.1278369269E-06   0.9345885443E-04  -0.1278369269E-06   0.3105215874E-01   0.7782995520E-02   0.0000000000E+00  -0.1538175211E-02
   0.2939463859E+00   0.4304999291E-01   0.9185093296E-04  -0.1406928818E-06   0.9185093296E-04  -0.1406928818E-06   0.3065247334E-01   0.7560328783E-02   0.0000000000E+00  -0.1935733888E-02
   0.3501999940E+00   0.8653699932E-01   0.1000000000E-03  -0.7322406491E-06   0.1000000000E-03  -0.7322406491E-06   0.3657748161E-01   0.6263108981E-02   0.0000000000E+00  -0.8353761589E-06
   0.3150400551E+00   0.5754605191E-01   0.9460902629E-04  -0.2576438207E-06   0.9460902629E-04  -0.2576438207E-06   0.3270760014E-01   0.7406019290E-02   0.0000000000E+00  -0.1485909329E-02
   0.3239813960E+00   0.6237736471E-01   0.9589950814E-04  -0.3085426380E-06   0.9589950814E-04  -0.3085426380E-06   0.3338535141E-01   0.7294408963E-02   0.0000000000E+00  -0.1136348706E-02
   0.3155047838E+00   0.6725028394E-01   0.9447039407E-04  -0.3936784704E-06   0.9447039407E-04  -0.3936784704E-06   0.3389524190E-01   0.6940808290E-02   0.0000000000E+00  -0.1611496333E-02
   0.3501999940E+00   0.6730696956E-01   0.1000000000E-03  -0.3630675767E-06   0.1000000000E-03  -0.3630675767E-06   0.3415236930E-01   0.7213478983E-02   0.0000000000E+00  -0.8584636541E-06
   0.3218271239E+00   0.4152538511E-01   0.9587943329E-04  -0.1030446854E-06   0.9587943329E-04  -0.1030446854E-06   0.3130605659E-01   0.8091564502E-02   0.0000000000E+00  -0.8911328363E-03
   0.3235451135E+00   0.5239003274E-01   0.9598573670E-04  -0.1912292211E-06   0.9598573670E-04  -0.1912292211E-06   0.3230441023E-01   0.7698621042E-02   0.0000000000E+00  -0.1068788687E-02
   0.3133221897E+00   0.4668144714E-01   0.9456433134E-04  -0.1479788343E-06   0.9456433134E-04  -0.1479788343E-06   0.3164926169E-01   0.7786753376E-02   0.0000000000E+00  -0.1323909174E-02
   0.3501999940E+00   0.4807663938E-01   0.1000000000E-03  -0.1422602794E-06   0.1000000000E-03  -0.1422602794E-06   0.3219818724E-01   0.8010151942E-02   0.0000000000E+00   0.1136277651E-06
   0.3226624500E+00   0.7977481821E-02   0.9624997997E-04  -0.3779284681E-08   0.9624997997E-04  -0.3779284681E-08   0.2965836266E-01   0.8778034630E-02   0.0000000000E+00  -0.2090091980E-03
   0.3304925764E+00   0.1308583746E-01   0.9729968720E-04  -0.6520331085E-08   0.9729968720E-04  -0.6520331085E-08   0.3001767751E-01   0.8782200641E-02   0.0000000000E+00  -0.2105916570E-03
   0.6707534074E-01   0.1968963021E+00   0.1883447161E-04  -0.3366044889E-04   0.1883447161E-04  -0.3366044889E-04   0.5876520096E-01   0.6185925126E-03   0.0000000000E+00   0.7683376930E-02
   0.4893626622E-01   0.2013856667E+00   0.1330291185E-04  -0.3704213389E-04   0.1330291185E-04  -0.3704213389E-04   0.5668842691E-01   0.2218317222E-02   0.0000000000E+00   0.6604295678E-02
   0.6235745924E-01   0.2063538381E+00   0.1670046977E-04  -0.3527344440E-04   0.1670046977E-04  -0.3527344440E-04   0.5625425708E-01   0.9171622341E-03   0.0000000000E+00   0.6816987692E-02
   0.5328808432E-01   0.2085986023E+00   0.1401680757E-04  -0.3692333345E-04   0.1401680757E-04  -0.3692333345E-04   0.5514606681E-01   0.1392625223E-02   0.0000000000E+00   0.6281820448E-02
   0.5800572571E-01   0.1991408200E+00   0.1602885479E-04  -0.3543351013E-04   0.1602885479E-04  -0.3543351013E-04   0.5783998626E-01   0.1429163546E-02   0.0000000000E+00   0.7183501870E-02
   0.4862913975E-01   0.2499190100E+00   0.9013922716E-05  -0.4049498277E-04   0.9013922716E-05  -0.4049498277E-04   0.4143248223E-01  -0.8592558674E-04   0.0000000000E+00   0.1620084313E-03
   0.7744376409E-01   0.2155952650E+00   0.2005719423E-04  -0.3334649301E-04   0.2005719423E-04  -0.3334649301E-04   0.5570396637E-01  -0.1527444314E-03   0.0000000000E+00   0.6336069401E-02
   0.7264658684E-01   0.2242464843E+00   0.1782862031E-04  -0.3492232845E-04   0.1782862031E-04  -0.3492232845E-04   0.5329284946E-01   0.8965353106E-04   0.0000000000E+00   0.5131314203E-02
   0.6274474177E-01   0.2243546989E+00   0.1520918554E-04  -0.3661954987E-04   0.1520918554E-04  -0.3661954987E-04   0.5222965682E-01   0.3112492349E-03   0.0000000000E+00   0.4971973959E-02
   0.6754167655E-01   0.2157032893E+00   0.1731652653E-04  -0.3513183231E-04   0.1731652653E-04  -0.3513183231E-04   0.5466037775E-01   0.3170876971E-03   0.0000000000E+00   0.6237523433E-02
   0.6808214967E-01   0.2499247463E+00   0.1329723308E-04  -0.3762685147E-04   0.1329723308E-04  -0.3762685147E-04   0.4670818278E-01  -0.2263421260E-04   0.0000000000E+00   0.1945664040E-03
   0.8762420017E-01   0.1993494712E+00   0.2466913403E-04  -0.2995490276E-04   0.2466913403E-04  -0.2995490276E-04   0.5920891786E-01  -0.1144581002E-02   0.0000000000E+00   0.7205527189E-02
   0.1068341112E+00   0.1994340934E+00   0.3042309653E-04  -0.2617780445E-04   0.3042309653E-04  -0.2617780445E-04   0.5977305262E-01  -0.2237027783E-02   0.0000000000E+00   0.6010748102E-02
   0.9722913422E-01   0.1993917892E+00   0.2753546227E-04  -0.2806288658E-04   0.2753546227E-04  -0.2806288658E-04   0.5953663197E-01  -0.1691068713E-02   0.0000000000E+00   0.6647963878E-02
   0.1019990722E+00   0.2077528898E+00   0.2799809643E-04  -0.2793661991E-04   0.2799809643E-04  -0.2793661991E-04   0.5863378088E-01  -0.1472611052E-02   0.0000000000E+00   0.5870601559E-02
   0.9239422789E-01   0.2077106195E+00   0.2517679583E-04  -0.2980427290E-04   0.2517679583E-04  -0.2980427290E-04   0.5831583142E-01  -0.1131773916E-02   0.0000000000E+00   0.6425929439E-02
   0.8753622194E-01   0.2499314355E+00   0.1810797028E-04  -0.3428224979E-04   0.1810797028E-04  -0.3428224979E-04   0.5224057622E-01   0.3594597398E-04   0.0000000000E+00   0.1795371231E-03
   0.1120597644E+00   0.1455398327E+00   0.3967071417E-04  -0.1881413990E-04   0.3967071417E-04  -0.1881413990E-04   0.6274898331E-01  -0.8228258245E-02   0.0000000000E+00   0.1316588136E-02
   0.1041473481E+00   0.1665319897E+00   0.3371154740E-04  -0.2309966673E-04   0.3371154740E-04  -0.2309966673E-04   0.6303962677E-01  -0.5136291348E-02   0.0000000000E+00   0.5102917200E-02
   0.9071461184E-01   0.1517785288E+00   0.3150512160E-04  -0.2417210199E-04   0.3150512160E-04  -0.2417210199E-04   0.6602933012E-01  -0.5063809261E-02   0.0000000000E+00   0.4799351707E-02
   0.1081033176E+00   0.1560358492E+00   0.3657379895E-04  -0.2099139857E-04   0.3657379895E-04  -0.2099139857E-04   0.6296002216E-01  -0.6548735275E-02   0.0000000000E+00   0.3257781664E-02
   0.9743095368E-01   0.1591553005E+00   0.3259343974E-04  -0.2361527043E-04   0.3259343974E-04  -0.2361527043E-04   0.6441439607E-01  -0.5251420645E-02   0.0000000000E+00   0.4879489782E-02
   0.1013872156E+00   0.1486592885E+00   0.3560179681E-04  -0.2144274618E-04   0.3560179681E-04  -0.2144274618E-04   0.6447387243E-01  -0.6688420238E-02   0.0000000000E+00   0.3111663732E-02
   0.1069913082E+00   0.2499385112E+00   0.2343310459E-04  -0.3074439929E-04   0.2343310459E-04  -0.3074439929E-04   0.5727142811E-01   0.7728101822E-04   0.0000000000E+00   0.1444889813E-03
   0.9499252082E-01   0.9626934410E-01   0.4754335905E-04  -0.1571460164E-04   0.4754335905E-04  -0.1571460164E-04   0.5503108710E-01  -0.9995748068E-02   0.0000000000E+00  -0.1041686016E-01
   0.1090151642E+00   0.7684410430E-01   0.5857509291E-04  -0.1005050208E-04   0.5857509291E-04  -0.1005050208E-04   0.3700904443E-01  -0.1260121558E-01   0.0000000000E+00  -0.1363988863E-01
   0.9191913537E-01   0.8502317326E-01   0.5141463300E-04  -0.1519122156E-04   0.5141463300E-04  -0.1519122156E-04   0.4426283906E-01  -0.7886772904E-02   0.0000000000E+00  -0.1219947037E-01
   0.9893102786E-01   0.7531070982E-01   0.5721592840E-04  -0.1228093892E-04   0.5721592840E-04  -0.1228093892E-04   0.3570749703E-01  -0.8813202054E-02   0.0000000000E+00  -0.1375257025E-01
   0.1020041573E+00   0.8655690851E-01   0.5321666680E-04  -0.1279039523E-04   0.5321666680E-04  -0.1279039523E-04   0.4615268411E-01  -0.1135541327E-01   0.0000000000E+00  -0.1233619438E-01
   0.1264472912E+00   0.2499454846E+00   0.2919911271E-04  -0.2725770590E-04   0.2919911271E-04  -0.2725770590E-04   0.6130287520E-01   0.9723567698E-04   0.0000000000E+00   0.1014249540E-03
   0.1507619875E+00   0.2246151326E+00   0.4046927158E-04  -0.2082869755E-04   0.4046927158E-04  -0.2082869755E-04   0.6101079012E-01  -0.8638868387E-03   0.0000000000E+00   0.1745396688E-02
   0.1458913393E+00   0.2161714523E+00   0.4009912546E-04  -0.2079036363E-04   0.4009912546E-04  -0.2079036363E-04   0.6043161770E-01  -0.1307435211E-02   0.0000000000E+00   0.2463663357E-02
   0.1459039382E+00   0.2499519897E+00   0.3529759299E-04  -0.2400515006E-04   0.3529759299E-04  -0.2400515006E-04   0.6411394319E-01   0.9868504440E-04   0.0000000000E+00   0.5937362042E-04
   0.1945607029E+00   0.2161429492E+00   0.5492394368E-04  -0.1426941818E-04   0.5492394368E-04  -0.1426941818E-04   0.6038070128E-01  -0.7825162975E-03   0.0000000000E+00  -0.4313479380E-03
   0.2042961510E+00   0.2161554216E+00   0.5786601799E-04  -0.1330072488E-04   0.5786601799E-04  -0.1330072488E-04   0.6017366532E-01  -0.6190238584E-03   0.0000000000E+00  -0.7794602138E-03
   0.1994214635E+00   0.2246088164E+00   0.5549076155E-04  -0.1456932385E-04   0.5549076155E-04  -0.1456932385E-04   0.6153934419E-01  -0.4444588649E-03   0.0000000000E+00  -0.4358030826E-03
   0.1653609993E+00   0.2499577938E+00   0.4161014038E-04  -0.2110307833E-04   0.4161014038E-04  -0.2110307833E-04   0.6571499795E-01   0.8711729212E-04   0.0000000000E+00   0.2399820353E-04
   0.1896912748E+00   0.2246051475E+00   0.5248892145E-04  -0.1559924722E-04   0.5248892145E-04  -0.1559924722E-04   0.6160894129E-01  -0.5620531182E-03   0.0000000000E+00  -0.1248486942E-03
   0.1848254954E+00   0.2161445032E+00   0.5196817896E-04  -0.1534787878E-04   0.5196817896E-04  -0.1534787878E-04   0.6060132897E-01  -0.9007650379E-03   0.0000000000E+00   0.3017122504E-04
   0.1848182692E+00   0.2499627835E+00   0.4802707699E-04  -0.1860826411E-04   0.4802707699E-04  -0.1860826411E-04   0.6627111657E-01   0.6829709219E-04   0.0000000000E+00  -0.2056731263E-05
   0.2252350085E+00   0.3586916579E-01   0.8309277225E-04  -0.2535548246E-06   0.8309277225E-04  -0.2535548246E-06   0.2516148260E-01   0.4954216272E-02   0.0000000000E+00  -0.4598990988E-02
   0.2463605193E+00   0.3605636497E-01   0.8567864047E-04  -0.1773659376E-06   0.8567864047E-04  -0.1773659376E-06   0.2715869809E-01   0.6202477102E-02   0.0000000000E+00  -0.3535495111E-02
   0.2304454758E+00   0.2690451262E-01   0.8419241469E-04  -0.1376405088E-06   0.8419241469E-04  -0.1376405088E-06   0.2465984144E-01   0.5649329506E-02   0.0000000000E+00  -0.3320379418E-02
   0.2410081242E+00   0.2699808527E-01   0.8542410113E-04  -0.1130127200E-06   0.8542410113E-04  -0.1130127200E-06   0.2565955180E-01   0.6229342828E-02   0.0000000000E+00  -0.2903299246E-02
   0.2357977205E+00   0.3596277385E-01   0.8436427218E-04  -0.2112228515E-06   0.8436427218E-04  -0.2112228515E-06   0.2632499041E-01   0.5627439254E-02   0.0000000000E+00  -0.4055257435E-02
   0.2042755834E+00   0.2499669375E+00   0.5445869443E-04  -0.1653125907E-04   0.5445869443E-04  -0.1653125907E-04   0.6602558760E-01   0.4702388081E-04   0.0000000000E+00  -0.1877736686E-04
   0.2741622416E+00   0.1830336910E+00   0.8039628699E-04  -0.6332491180E-05   0.8039628699E-04  -0.6332491180E-05   0.5267816205E-01   0.6601598760E-03   0.0000000000E+00  -0.2475037343E-02
   0.2788227470E+00   0.1913719587E+00   0.8113552487E-04  -0.6834171234E-05   0.8113552487E-04  -0.6834171234E-05   0.5385466919E-01   0.6023594112E-03   0.0000000000E+00  -0.2140128910E-02
   0.2688243646E+00   0.1912512809E+00   0.7845281816E-04  -0.7143550302E-05   0.7845281816E-04  -0.7143550302E-05   0.5412498664E-01   0.3985618530E-03   0.0000000000E+00  -0.2296488643E-02
   0.2237327957E+00   0.2499702975E+00   0.6083987039E-04  -0.1485123752E-04   0.6083987039E-04  -0.1485123752E-04   0.6524014125E-01   0.2660531186E-04   0.0000000000E+00  -0.2750351207E-04
   0.2335342362E+00   0.2161965573E+00   0.6660311115E-04  -0.1099434742E-04   0.6660311115E-04  -0.1099434742E-04   0.5918177146E-01  -0.2282560501E-03   0.0000000000E+00  -0.1453624518E-02
   0.2286381015E+00   0.2246432137E+00   0.6442726355E-04  -0.1209315734E-04   0.6442726355E-04  -0.1209315734E-04   0.6066665162E-01  -0.1969040229E-03   0.0000000000E+00  -0.1068436922E-02
   0.2237829366E+00   0.2161821984E+00   0.6370727643E-04  -0.1166927591E-04   0.6370727643E-04  -0.1166927591E-04   0.5954900434E-01  -0.3500261647E-03   0.0000000000E+00  -0.1288616228E-02
   0.2431898120E+00   0.2499729413E+00   0.6712998694E-04  -0.1352934787E-04   0.6712998694E-04  -0.1352934787E-04   0.6415705338E-01   0.8822799786E-05   0.0000000000E+00  -0.3022893279E-04
   0.3150676981E+00   0.2132832808E+00   0.9019153726E-04  -0.7818114796E-05   0.9019153726E-04  -0.7818114796E-05   0.5622688172E-01   0.4314396932E-03   0.0000000000E+00  -0.8583990424E-03
   0.3241952465E+00   0.2074475329E+00   0.9285425978E-04  -0.7240062687E-05   0.9285425978E-04  -0.7240062687E-05   0.5530667695E-01   0.6225683586E-03   0.0000000000E+00  -0.6959810096E-03
   0.3154194634E+00   0.2028257281E+00   0.9055320946E-04  -0.6972432165E-05   0.9055320946E-04  -0.6972432165E-05   0.5473374073E-01   0.6952285297E-03   0.0000000000E+00  -0.1010467069E-02
   0.2626466082E+00   0.2499749614E+00   0.7331010988E-04  -0.1251927692E-04   0.7331010988E-04  -0.1251927692E-04   0.6298027084E-01  -0.5825808921E-05   0.0000000000E+00  -0.2917354732E-04
   0.3501999940E+00   0.1922957865E+00   0.1000000000E-03  -0.5954747851E-05   0.1000000000E-03  -0.5954747851E-05   0.5298006447E-01   0.1128086371E-02   0.0000000000E+00  -0.1427345918E-05
   0.3417509468E+00   0.1874412092E+00   0.9780988360E-04  -0.5612888546E-05   0.9780988360E-04  -0.5612888546E-05   0.5228428608E-01   0.1298283268E-02   0.0000000000E+00  -0.3161633712E-03
   0.3417613458E+00   0.1969537648E+00   0.9774941878E-04  -0.6315092138E-05   0.9774941878E-04  -0.6315092138E-05   0.5368478650E-01   0.9742284736E-03   0.0000000000E+00  -0.2629134244E-03
   0.2821032120E+00   0.2499764503E+00   0.7937898457E-04  -0.1177485289E-04   0.7937898457E-04  -0.1177485289E-04   0.6186943922E-01  -0.1747368331E-04   0.0000000000E+00  -0.2683242024E-04
   0.2931228384E+00   0.2158118333E+00   0.8391372050E-04  -0.8434334849E-05   0.8391372050E-04  -0.8434334849E-05   0.5706151761E-01   0.2920226974E-03   0.0000000000E+00  -0.1223408400E-02
   0.2879300142E+00   0.2243281679E+00   0.8207658162E-04  -0.9294548582E-05   0.8207658162E-04  -0.9294548582E-05   0.5840012456E-01   0.1616409976E-03   0.0000000000E+00  -0.1015933615E-02
   0.2779260646E+00   0.2244955949E+00   0.7914380781E-04  -0.9608547105E-05   0.7914380781E-04  -0.9608547105E-05   0.5873608805E-01   0.1342696144E-03   0.0000000000E+00  -0.1119795286E-02
   0.2831190587E+00   0.2159793306E+00   0.8105032558E-04  -0.8713210376E-05   0.8105032558E-04  -0.8713210376E-05   0.5736777757E-01   0.2164116152E-03   0.0000000000E+00  -0.1356916624E-02
   0.3015595878E+00   0.2499774898E+00   0.8534888729E-04  -0.1125511544E-04   0.8534888729E-04  -0.1125511544E-04   0.6094652775E-01  -0.2760918138E-04   0.0000000000E+00  -0.2500303942E-04
   0.3346602597E+00   0.2178816968E+00   0.9561983949E-04  -0.8008098487E-05   0.9561983949E-04  -0.8008098487E-05   0.5657805256E-01   0.3742023324E-03   0.0000000000E+00  -0.3566814098E-03
   0.3424300483E+00   0.2243164380E+00   0.9777814865E-04  -0.8513520904E-05   0.9777814865E-04  -0.8513520904E-05   0.5732738813E-01   0.2654725604E-03   0.0000000000E+00  -0.1526678434E-03
   0.3372238883E+00   0.2315457823E+00   0.9623217238E-04  -0.9153865817E-05   0.9623217238E-04  -0.9153865817E-05   0.5817466390E-01   0.1162459347E-03   0.0000000000E+00  -0.1935470454E-03
   0.3294540583E+00   0.2251110183E+00   0.9405314934E-04  -0.8652361459E-05   0.9405314934E-04  -0.8652361459E-05   0.5753030168E-01   0.2406605122E-03   0.0000000000E+00  -0.3678043983E-03
   0.2603200952E-01   0.1503744843E+00   0.9235658579E-05  -0.3688933985E-04   0.9235658579E-05  -0.3688933985E-04   0.7390570893E-01   0.1154077241E-01   0.0000000000E+00   0.4092732290E-02
   0.5151557293E-01   0.1655618250E+00   0.1663211450E-04  -0.3390000346E-04   0.1663211450E-04  -0.3390000346E-04   0.6664722612E-01   0.4208173824E-02   0.0000000000E+00   0.7480606889E-02
   0.5269900318E-01   0.1552543418E+00   0.1805079081E-04  -0.3283860838E-04   0.1805079081E-04  -0.3283860838E-04   0.6981340032E-01   0.4323852875E-02   0.0000000000E+00   0.6736884814E-02
   0.4306263804E-01   0.1603655875E+00   0.1429186779E-04  -0.3499973897E-04   0.1429186779E-04  -0.3499973897E-04   0.6857422803E-01   0.6547694350E-02   0.0000000000E+00   0.6443811179E-02
   0.4424603262E-01   0.1500578861E+00   0.1569455974E-04  -0.3404694696E-04   0.1569455974E-04  -0.3404694696E-04   0.7269605657E-01   0.6919046202E-02   0.0000000000E+00   0.5617938539E-02
   0.4273464860E-01   0.2083609147E+00   0.1117379817E-04  -0.3841315102E-04   0.1117379817E-04  -0.3841315102E-04   0.5438727517E-01   0.2196667957E-02   0.0000000000E+00   0.5522566072E-02
   0.3514319960E-01   0.2047566622E+00   0.9322197881E-05  -0.3909339597E-04   0.9322197881E-05  -0.3909339597E-04   0.5490688925E-01   0.2984856612E-02   0.0000000000E+00   0.5090040884E-02
   0.4134468725E-01   0.1977811502E+00   0.1138632715E-04  -0.3785388754E-04   0.1138632715E-04  -0.3785388754E-04   0.5724799133E-01   0.3313144973E-02   0.0000000000E+00   0.6052998312E-02
   0.3378528964E-01   0.1845459529E+00   0.9865720242E-05  -0.3792905589E-04   0.9865720242E-05  -0.3792905589E-04   0.6088014391E-01   0.5573155633E-02   0.0000000000E+00   0.5746728955E-02
   0.2533006969E-01   0.1796810974E+00   0.7549896482E-05  -0.3855429557E-04   0.7549896482E-05  -0.3855429557E-04   0.6229060441E-01   0.7262193663E-02   0.0000000000E+00   0.4495995275E-02
   0.7734976198E-01   0.1981228186E+00   0.2174568780E-04  -0.3184169699E-04   0.2174568780E-04  -0.3184169699E-04   0.5895649369E-01  -0.2841446661E-03   0.0000000000E+00   0.7507739993E-02
   0.8253392562E-01   0.2074722941E+00   0.2233676090E-04  -0.3168744096E-04   0.2233676090E-04  -0.3168744096E-04   0.5748473788E-01  -0.5220819485E-03   0.0000000000E+00   0.6746430303E-02
   0.7225967962E-01   0.2062457757E+00   0.1950946165E-04  -0.3350765564E-04   0.1950946165E-04  -0.3350765564E-04   0.5718900459E-01   0.6195112823E-04   0.0000000000E+00   0.6985266152E-02
   0.3334281764E+00   0.1538139684E+00   0.9612870389E-04  -0.3466802968E-05   0.9612870389E-04  -0.3466802968E-05   0.4700714887E-01   0.2664387918E-02   0.0000000000E+00  -0.7971023095E-03
   0.3501999940E+00   0.1826817916E+00   0.1000000000E-03  -0.5263712800E-05   0.1000000000E-03  -0.5263712800E-05   0.5150999840E-01   0.1476821593E-02   0.0000000000E+00  -0.1102053467E-05
   0.3249786881E+00   0.1106208079E+00   0.9513355049E-04  -0.1484540356E-05   0.9513355049E-04  -0.1484540356E-05   0.4007881389E-01   0.4808865012E-02   0.0000000000E+00  -0.1375289174E-02
   0.2474785250E+00   0.9581435234E-01   0.8136548992E-04  -0.1707382130E-05   0.8136548992E-04  -0.1707382130E-05   0.3763935575E-01   0.2641594127E-02   0.0000000000E+00  -0.5751742682E-02
   0.2648870645E+00   0.8646160880E-01   0.8523477348E-04  -0.1111300729E-05   0.8523477348E-04  -0.1111300729E-05   0.3590988455E-01   0.4278501676E-02   0.0000000000E+00  -0.4662344826E-02
   0.2647414029E+00   0.1059543083E+00   0.8376545226E-04  -0.1856843401E-05   0.8376545226E-04  -0.1856843401E-05   0.3947173625E-01   0.3131215952E-02   0.0000000000E+00  -0.4684262096E-02
   0.2561828936E+00   0.9113803793E-01   0.8334927801E-04  -0.1380633412E-05   0.8334927801E-04  -0.1380633412E-05   0.3671347112E-01   0.3457022917E-02   0.0000000000E+00  -0.5211102231E-02
   0.2648142468E+00   0.9620801282E-01   0.8451388565E-04  -0.1456988093E-05   0.8451388565E-04  -0.1456988093E-05   0.3767875686E-01   0.3661291577E-02   0.0000000000E+00  -0.4700397885E-02
   0.2561099027E+00   0.1008843406E+00   0.8252737418E-04  -0.1777197156E-05   0.8252737418E-04  -0.1777197156E-05   0.3862292566E-01   0.2927883995E-02   0.0000000000E+00  -0.5186431135E-02
   0.3501999940E+00   0.2115235779E+00   0.1000000000E-03  -0.7443062110E-05   0.1000000000E-03  -0.7443062110E-05   0.5568283662E-01   0.5400277436E-03   0.0000000000E+00   0.1550395637E-05
   0.3501999940E+00   0.2019097078E+00   0.1000000000E-03  -0.6682087096E-05   0.1000000000E-03  -0.6682087096E-05   0.5433082941E-01   0.8149174594E-03   0.0000000000E+00  -0.1065386341E-05
   0.3417612241E+00   0.2065676518E+00   0.9768856900E-04  -0.7059596785E-05   0.9768856900E-04  -0.7059596785E-05   0.5504215082E-01   0.6782455252E-03   0.0000000000E+00  -0.2501006325E-03
   0.3006981888E+00   0.2008330931E+00   0.8660439997E-04  -0.7050433729E-05   0.8660439997E-04  -0.7050433729E-05   0.5474239555E-01   0.6458992334E-03   0.0000000000E+00  -0.1428501710E-02
   0.2960458105E+00   0.1829914350E+00   0.8609922903E-04  -0.5786491900E-05   0.8609922903E-04  -0.5786491900E-05   0.5213353178E-01   0.1073011277E-02   0.0000000000E+00  -0.1925437979E-02
   0.2983719524E+00   0.1919122984E+00   0.8632819576E-04  -0.6404784061E-05   0.8632819576E-04  -0.6404784061E-05   0.5344360807E-01   0.8630450481E-03   0.0000000000E+00  -0.1669885370E-02
   0.3059084618E+00   0.1876798069E+00   0.8847838486E-04  -0.5955539456E-05   0.8847838486E-04  -0.5955539456E-05   0.5268798088E-01   0.1050458104E-02   0.0000000000E+00  -0.1533648971E-02
   0.3082347712E+00   0.1966006225E+00   0.8879112089E-04  -0.6590736381E-05   0.8879112089E-04  -0.6590736381E-05   0.5398083696E-01   0.8296248669E-03   0.0000000000E+00  -0.1292139586E-02
   0.3250199004E+00   0.1394232371E+00   0.9450520441E-04  -0.2733951921E-05   0.9450520441E-04  -0.2733951921E-05   0.4473419703E-01   0.3295483526E-02   0.0000000000E+00  -0.1278364510E-02
   0.2995810881E+00   0.1250445745E+00   0.8957452697E-04  -0.2247764878E-05   0.8957452697E-04  -0.2247764878E-05   0.4251607315E-01   0.3533585310E-02   0.0000000000E+00  -0.2676088931E-02
   0.2995239880E+00   0.1154633382E+00   0.8999250030E-04  -0.1829387979E-05   0.8999250030E-04  -0.1829387979E-05   0.4091414687E-01   0.4015389069E-02   0.0000000000E+00  -0.2734013425E-02
   0.3080725715E+00   0.1202487530E+00   0.9151027495E-04  -0.1958015542E-05   0.9151027495E-04  -0.1958015542E-05   0.4167059505E-01   0.3989078130E-02   0.0000000000E+00  -0.2255961078E-02
   0.3161588020E+00   0.8658591797E-01   0.9410101664E-04  -0.7853651920E-06   0.9410101664E-04  -0.7853651920E-06   0.3646037667E-01   0.5967831638E-02   0.0000000000E+00  -0.1781806266E-02
   0.2798950699E+00   0.5578717773E-01   0.8937847346E-04  -0.3119835201E-06   0.8937847346E-04  -0.3119835201E-06   0.3153456814E-01   0.6651338717E-02   0.0000000000E+00  -0.3059199058E-02
   0.2984292517E+00   0.6737526163E-01   0.9176183412E-04  -0.4375866436E-06   0.9176183412E-04  -0.4375866436E-06   0.3355810897E-01   0.6616222420E-02   0.0000000000E+00  -0.2457031201E-02
   0.2893625717E+00   0.5311947706E-01   0.9087833370E-04  -0.2513720758E-06   0.9087833370E-04  -0.2513720758E-06   0.3157075775E-01   0.7038682623E-02   0.0000000000E+00  -0.2524723436E-02
   0.2986296704E+00   0.5891353714E-01   0.9207371747E-04  -0.3050801860E-06   0.9207371747E-04  -0.3050801860E-06   0.3257447177E-01   0.6987898671E-02   0.0000000000E+00  -0.2240307598E-02
   0.2891620903E+00   0.6158122938E-01   0.9053515526E-04  -0.3699588298E-06   0.9053515526E-04  -0.3699588298E-06   0.3258432954E-01   0.6642544380E-02   0.0000000000E+00  -0.2752015209E-02
   0.3339914192E+00   0.2097467151E+00   0.9552211559E-04  -0.7347968952E-05   0.9552211559E-04  -0.7347968952E-05   0.5547230123E-01   0.5834271674E-03   0.0000000000E+00  -0.4303243521E-03
   0.3424301463E+00   0.2147026637E+00   0.9782717272E-04  -0.7712649472E-05   0.9782717272E-04  -0.7712649472E-05   0.5612279071E-01   0.4662708403E-03   0.0000000000E+00  -0.1785144163E-03
   0.3196576488E+00   0.2228118149E+00   0.9128190509E-04  -0.8555027370E-05   0.9128190509E-04  -0.8555027370E-05   0.5736954369E-01   0.2836035076E-03   0.0000000000E+00  -0.5895014451E-03
   0.3090988275E+00   0.2228055844E+00   0.8825323121E-04  -0.8704788726E-05   0.8825323121E-04  -0.8704788726E-05   0.5760781784E-01   0.2519160750E-03   0.0000000000E+00  -0.7577698118E-03
   0.3163580661E+00   0.1537017842E+00   0.9218206322E-04  -0.3575390636E-05   0.9218206322E-04  -0.3575390636E-05   0.4712417153E-01   0.2498740912E-02   0.0000000000E+00  -0.1590438324E-02
   0.3249067106E+00   0.1489629619E+00   0.9426679698E-04  -0.3240053191E-05   0.9426679698E-04  -0.3240053191E-05   0.4629077792E-01   0.2830404120E-02   0.0000000000E+00  -0.1220630993E-02
   0.3248795398E+00   0.1585528098E+00   0.9404742409E-04  -0.3792618031E-05   0.9404742409E-04  -0.3792618031E-05   0.4785451138E-01   0.2382728751E-02   0.0000000000E+00  -0.1162687817E-02
   0.2238308794E+00   0.1992579069E+00   0.6530468862E-04  -0.1014203469E-04   0.6530468862E-04  -0.1014203469E-04   0.5702925192E-01  -0.6893344797E-03   0.0000000000E+00  -0.1941432462E-02
   0.2043130134E+00   0.1991973392E+00   0.5968069851E-04  -0.1171891051E-04   0.5968069851E-04  -0.1171891051E-04   0.5782596812E-01  -0.1258402639E-02   0.0000000000E+00  -0.1372780666E-02
   0.2189312716E+00   0.2077128262E+00   0.6306879804E-04  -0.1126692103E-04   0.6306879804E-04  -0.1126692103E-04   0.5841987437E-01  -0.6417452830E-03   0.0000000000E+00  -0.1498894773E-02
   0.2091722215E+00   0.2076825201E+00   0.6020175743E-04  -0.1206994376E-04   0.6020175743E-04  -0.1206994376E-04   0.5883983129E-01  -0.8255350472E-03   0.0000000000E+00  -0.1227888058E-02
   0.2140719770E+00   0.1992277136E+00   0.6250448475E-04  -0.1088121415E-04   0.6250448475E-04  -0.1088121415E-04   0.5743293571E-01  -0.9719697077E-03   0.0000000000E+00  -0.1680242123E-02
   0.3501999940E+00   0.2211373869E+00   0.1000000000E-03  -0.8234059863E-05   0.1000000000E-03  -0.8234059863E-05   0.5688070876E-01   0.3226165188E-03   0.0000000000E+00   0.5745385514E-06
   0.3248639692E+00   0.2155825265E+00   0.9289312402E-04  -0.7894245913E-05   0.9289312402E-04  -0.7894245913E-05   0.5638025734E-01   0.4001009147E-03   0.0000000000E+00  -0.6027748219E-03
   0.2679836301E+00   0.2245942549E+00   0.7621205540E-04  -0.9974054268E-05   0.7621205540E-04  -0.9974054268E-05   0.5914588341E-01   0.7097862189E-04   0.0000000000E+00  -0.1179392818E-02
   0.2532346672E+00   0.2162122379E+00   0.7239607971E-04  -0.9882039776E-05   0.7239607971E-04  -0.9882039776E-05   0.5844800149E-01  -0.9901278394E-05   0.0000000000E+00  -0.1566682272E-02
   0.2580432489E+00   0.2246270072E+00   0.7326393484E-04  -0.1039888997E-04   0.7326393484E-04  -0.1039888997E-04   0.5951327089E-01   0.3241444678E-04   0.0000000000E+00  -0.1217602790E-02
   0.2482251044E+00   0.2246578421E+00   0.7033170703E-04  -0.1088844476E-04   0.7033170703E-04  -0.1088844476E-04   0.5992731251E-01  -0.4764460704E-04   0.0000000000E+00  -0.1210227603E-02
   0.1166820583E+00   0.2161801548E+00   0.3130667366E-04  -0.2593108493E-04   0.3130667366E-04  -0.2593108493E-04   0.5902221734E-01  -0.1263743767E-02   0.0000000000E+00   0.4576713338E-02
   0.1215612219E+00   0.2246288420E+00   0.3163145354E-04  -0.2582049334E-04   0.3163145354E-04  -0.2582049334E-04   0.5933836941E-01  -0.8647250777E-03   0.0000000000E+00   0.3487827652E-02
   0.1118221626E+00   0.2246211452E+00   0.2876128549E-04  -0.2762738249E-04   0.2876128549E-04  -0.2762738249E-04   0.5810761398E-01  -0.7496892844E-03   0.0000000000E+00   0.3980207017E-02
   0.1054807965E+00   0.6682914569E-01   0.6190273153E-04  -0.9759903914E-05   0.6190273153E-04  -0.9759903914E-05   0.2659634598E-01  -0.1241265186E-01   0.0000000000E+00  -0.1190608704E-01
   0.8242734581E-01   0.2242777393E+00   0.2047075599E-04  -0.3315286352E-04   0.2047075599E-04  -0.3315286352E-04   0.5489958917E-01  -0.2629381603E-03   0.0000000000E+00   0.5074685302E-02
   0.1458398758E+00   0.1992389162E+00   0.4227741769E-04  -0.1910087826E-04   0.4227741769E-04  -0.1910087826E-04   0.5976639223E-01  -0.2758448082E-02   0.0000000000E+00   0.2538649905E-02
   0.1357352060E+00   0.1823145665E+00   0.4143651361E-04  -0.1896574946E-04   0.4143651361E-04  -0.1896574946E-04   0.5995815579E-01  -0.4503121157E-02   0.0000000000E+00   0.2872213144E-02
   0.1506505857E+00   0.1907272258E+00   0.4484234769E-04  -0.1744610304E-04   0.4484234769E-04  -0.1744610304E-04   0.5921111581E-01  -0.3476916629E-02   0.0000000000E+00   0.1741379256E-02
   0.1407875248E+00   0.1907767297E+00   0.4184890828E-04  -0.1903913309E-04   0.4184890828E-04  -0.1903913309E-04   0.5985450919E-01  -0.3613474346E-02   0.0000000000E+00   0.2701209512E-02
   0.1455983024E+00   0.1822651606E+00   0.4444770361E-04  -0.1732368866E-04   0.4444770361E-04  -0.1732368866E-04   0.5930692626E-01  -0.4315483335E-02   0.0000000000E+00   0.1879495053E-02
   0.2199830551E+00   0.2688953166E-01   0.8302104298E-04  -0.1700721126E-06   0.8302104298E-04  -0.1700721126E-06   0.2326667604E-01   0.4937737137E-02   0.0000000000E+00  -0.3771809259E-02
   0.2041864204E+00   0.3564675915E-01   0.8071021745E-04  -0.3780273833E-06   0.8071021745E-04  -0.3780273833E-06   0.2264190937E-01   0.3209862218E-02   0.0000000000E+00  -0.5873231279E-02
   0.1936793449E+00   0.3550908428E-01   0.7960793480E-04  -0.4708116405E-06   0.7960793480E-04  -0.4708116405E-06   0.2132419995E-01   0.2036987508E-02   0.0000000000E+00  -0.6600643107E-02
   0.1884765628E+00   0.2660135284E-01   0.7988541916E-04  -0.3422318862E-06   0.7988541916E-04  -0.3422318862E-06   0.1862675476E-01   0.1900597529E-02   0.0000000000E+00  -0.5375848993E-02
   0.1989833649E+00   0.2673899133E-01   0.8085794556E-04  -0.2675831554E-06   0.8085794556E-04  -0.2675831554E-06   0.2021285553E-01   0.3108706761E-02   0.0000000000E+00  -0.4817551898E-02
   0.1750578634E+00   0.1821758191E+00   0.5322218638E-04  -0.1317043412E-04   0.5322218638E-04  -0.1317043412E-04   0.5738714032E-01  -0.3336611646E-02   0.0000000000E+00  -0.6617482086E-03
   0.1653391289E+00   0.1991937253E+00   0.4816144359E-04  -0.1617034651E-04   0.4816144359E-04  -0.1617034651E-04   0.5927817378E-01  -0.2403284563E-02   0.0000000000E+00   0.8981065316E-03
   0.1652596419E+00   0.1821957809E+00   0.5034243689E-04  -0.1442506619E-04   0.5034243689E-04  -0.1442506619E-04   0.5801152434E-01  -0.3737645483E-02   0.0000000000E+00   0.1027472476E-03
   0.1701985010E+00   0.1906848133E+00   0.5069401778E-04  -0.1465387220E-04   0.5069401778E-04  -0.1465387220E-04   0.5831590859E-01  -0.2925232386E-02   0.0000000000E+00   0.1292791050E-03
   0.1604001845E+00   0.1907046066E+00   0.4777426717E-04  -0.1599272011E-04   0.4777426717E-04  -0.1599272011E-04   0.5899565290E-01  -0.3212136423E-02   0.0000000000E+00   0.9190348617E-03
   0.1848255298E+00   0.1991796240E+00   0.5396690285E-04  -0.1371447935E-04   0.5396690285E-04  -0.1371447935E-04   0.5860068706E-01  -0.1858936430E-02   0.0000000000E+00  -0.4266465673E-03
   0.1750823420E+00   0.1991867932E+00   0.5107448885E-04  -0.1488338718E-04   0.5107448885E-04  -0.1488338718E-04   0.5896889842E-01  -0.2120994638E-02   0.0000000000E+00   0.2122076651E-03
   0.1799579294E+00   0.2076627589E+00   0.5150020490E-04  -0.1511104754E-04   0.5150020490E-04  -0.1511104754E-04   0.5958929241E-01  -0.1522587117E-02   0.0000000000E+00   0.7935335071E-04
   0.1702146576E+00   0.2076697837E+00   0.4856532471E-04  -0.1635212685E-04   0.4856532471E-04  -0.1635212685E-04   0.5994771759E-01  -0.1701215122E-02   0.0000000000E+00   0.7040973497E-03
   0.1936737149E+00   0.5329105871E-01   0.7759044525E-04  -0.9803952943E-06   0.7759044525E-04  -0.9803952943E-06   0.2580745033E-01   0.6185579769E-03   0.0000000000E+00  -0.8658205515E-02
   0.2146481838E+00   0.5363387010E-01   0.8030091318E-04  -0.6865989908E-06   0.8030091318E-04  -0.6865989908E-06   0.2755615899E-01   0.2889972843E-02   0.0000000000E+00  -0.6938497279E-02
   0.1989303319E+00   0.4446901159E-01   0.7927846433E-04  -0.6269526244E-06   0.7927846433E-04  -0.6269526244E-06   0.2413747950E-01   0.1920847543E-02   0.0000000000E+00  -0.7214577307E-02
   0.2094173152E+00   0.4464034445E-01   0.8051207648E-04  -0.5174257932E-06   0.8051207648E-04  -0.5174257932E-06   0.2501400717E-01   0.2994475525E-02   0.0000000000E+00  -0.6462885149E-02
   0.2041609273E+00   0.5346249700E-01   0.7893065889E-04  -0.8162980250E-06   0.7893065889E-04  -0.8162980250E-06   0.2680416429E-01   0.1790255027E-02   0.0000000000E+00  -0.7780799543E-02
   0.1994368940E+00   0.2076701920E+00   0.5732049434E-04  -0.1297402200E-04   0.5732049434E-04  -0.1297402200E-04   0.5907107116E-01  -0.1078748358E-02   0.0000000000E+00  -0.8798715411E-03
   0.1896930606E+00   0.2076612968E+00   0.5441781737E-04  -0.1398660623E-04   0.5441781737E-04  -0.1398660623E-04   0.5948090891E-01  -0.1274005150E-02   0.0000000000E+00  -0.4321376894E-03
   0.1945692950E+00   0.1991885993E+00   0.5683548655E-04  -0.1266133958E-04   0.5683548655E-04  -0.1266133958E-04   0.5823061618E-01  -0.1552665220E-02   0.0000000000E+00  -0.9246709877E-03
   0.2435266110E+00   0.1993267796E+00   0.7088648240E-04  -0.8920214752E-05   0.7088648240E-04  -0.8920214752E-05   0.5625718583E-01  -0.1972049644E-03   0.0000000000E+00  -0.2173136046E-02
   0.2336787757E+00   0.1992924283E+00   0.6810686988E-04  -0.9488349477E-05   0.6810686988E-04  -0.9488349477E-05   0.5663728628E-01  -0.4447820062E-03   0.0000000000E+00  -0.2077196025E-02
   0.2385304671E+00   0.2077617152E+00   0.6876656722E-04  -0.9933878422E-05   0.6876656722E-04  -0.9933878422E-05   0.5770800480E-01  -0.2551214103E-03   0.0000000000E+00  -0.1804480537E-02
   0.2286824725E+00   0.2077272513E+00   0.6591472975E-04  -0.1055834784E-04   0.6591472975E-04  -0.1055834784E-04   0.5811291287E-01  -0.4129035351E-03   0.0000000000E+00  -0.1690967191E-02
   0.2383747622E+00   0.2246499931E+00   0.6737209942E-04  -0.1145296675E-04   0.6737209942E-04  -0.1145296675E-04   0.6030224971E-01  -0.9878128632E-04   0.0000000000E+00  -0.1161122930E-02
   0.5026284044E-01   0.1848545592E+00   0.1476236835E-04  -0.3560289261E-04   0.1476236835E-04  -0.3560289261E-04   0.6113594395E-01   0.3261726854E-02   0.0000000000E+00   0.7427225249E-02
   0.4200779810E-01   0.1895154807E+00   0.1202790116E-04  -0.3718865218E-04   0.1202790116E-04  -0.3718865218E-04   0.5968196880E-01   0.3904992613E-02   0.0000000000E+00   0.6407369174E-02
   0.4204031441E-01   0.1798846685E+00   0.1259140673E-04  -0.3651724180E-04   0.1259140673E-04  -0.3651724180E-04   0.6235716299E-01   0.5031055404E-02   0.0000000000E+00   0.6668513662E-02
   0.2917705864E-01   0.2499147896E+00   0.5194972480E-05  -0.4260521695E-04   0.5194972480E-05  -0.4260521695E-04   0.3710358981E-01  -0.7517384479E-04   0.0000000000E+00   0.6152574514E-04
   0.3435241367E-01   0.2249160482E+00   0.8068635399E-05  -0.4054241540E-04   0.8068635399E-05  -0.4054241540E-04   0.4837451039E-01   0.1191060726E-02   0.0000000000E+00   0.3486387862E-02
   0.4959953200E-01   0.1931200939E+00   0.1402194910E-04  -0.3632806807E-04   0.1402194910E-04  -0.3632806807E-04   0.5891034642E-01   0.2776968185E-02   0.0000000000E+00   0.7041317113E-02
   0.8730387269E-01   0.2158334840E+00   0.2280414483E-04  -0.3151648286E-04   0.2280414483E-04  -0.3151648286E-04   0.5663737336E-01  -0.4912605948E-03   0.0000000000E+00   0.6080013249E-02
   0.1264213484E+00   0.2161831882E+00   0.3421370565E-04  -0.2413840080E-04   0.3421370565E-04  -0.2413840080E-04   0.5964776960E-01  -0.1291884672E-02   0.0000000000E+00   0.3884351753E-02
   0.1069230326E+00   0.2161259953E+00   0.2843332295E-04  -0.2777533203E-04   0.2843332295E-04  -0.2777533203E-04   0.5835231520E-01  -0.1036015647E-02   0.0000000000E+00   0.5178045158E-02
   0.2631749738E+00   0.2161795523E+00   0.7529190056E-04  -0.9431373974E-05   0.7529190056E-04  -0.9431373974E-05   0.5807532581E-01   0.7099408945E-04   0.0000000000E+00  -0.1531895379E-02
   0.2433844722E+00   0.2162044697E+00   0.6950959827E-04  -0.1039815988E-04   0.6950959827E-04  -0.1039815988E-04   0.5882277853E-01  -0.1172816542E-03   0.0000000000E+00  -0.1525318222E-02
   0.3158287276E+00   0.1729724606E+00   0.9148679703E-04  -0.4788217026E-05   0.9148679703E-04  -0.4788217026E-05   0.5023869176E-01   0.1682380850E-02   0.0000000000E+00  -0.1403977144E-02
   0.3157999645E+00   0.1826703177E+00   0.9120177094E-04  -0.5457669937E-05   0.9120177094E-04  -0.5457669937E-05   0.5172744382E-01   0.1321076195E-02   0.0000000000E+00  -0.1282757782E-02
   0.3245652965E+00   0.1777795390E+00   0.9355225321E-04  -0.5030013151E-05   0.9355225321E-04  -0.5030013151E-05   0.5091627992E-01   0.1577888909E-02   0.0000000000E+00  -0.1016816033E-02
   0.2981262674E+00   0.2240698325E+00   0.8504917782E-04  -0.9023238729E-05   0.8504917782E-04  -0.9023238729E-05   0.5803266133E-01   0.2100066109E-03   0.0000000000E+00  -0.9076956066E-03
   0.2767433322E-01   0.1184344504E+00   0.1397030850E-04  -0.3463827559E-04   0.1397030850E-04  -0.3463827559E-04   0.9882488410E-01   0.1471654637E-01   0.0000000000E+00  -0.5203369931E-02
   0.2985053545E+00   0.1763046265E-01   0.9294773763E-04  -0.1902730446E-07   0.9294773763E-04  -0.1902730446E-07   0.2911675743E-01   0.8397722313E-02   0.0000000000E+00  -0.7898742226E-03
   0.2881429664E+00   0.1779607891E-01   0.9157619610E-04  -0.2319351455E-07   0.9157619610E-04  -0.2319351455E-07   0.2870688187E-01   0.8205186507E-02   0.0000000000E+00  -0.9824053562E-03
   0.2930943569E+00   0.8815235187E-02   0.9230794514E-04  -0.7586607161E-08   0.9230794514E-04  -0.7586607161E-08   0.2860883220E-01   0.8349880756E-02   0.0000000000E+00  -0.4333172695E-03
   0.3085220661E+00   0.0000000000E+00   0.9436452620E-04   0.0000000000E+00   0.9436452620E-04   0.0000000000E+00   0.2917796505E-01   0.8683193411E-02   0.0000000000E+00   0.9188117980E-05
   0.2981026271E+00   0.0000000000E+00   0.9298807049E-04   0.0000000000E+00   0.9298807049E-04   0.0000000000E+00   0.2881784255E-01   0.8549689182E-02   0.0000000000E+00  -0.1741664223E-05
   0.3035137576E+00   0.8815238039E-02   0.9367979597E-04  -0.6160572826E-08   0.9367979597E-04  -0.6160572826E-08   0.2909888336E-01   0.8528615833E-02   0.0000000000E+00  -0.3579059809E-03
   0.3072345722E+00   0.1679271049E-01   0.9412410096E-04  -0.1510692137E-07   0.9412410096E-04  -0.1510692137E-07   0.2948173505E-01   0.8553432016E-02   0.0000000000E+00  -0.6201090133E-03
   0.3122429572E+00   0.7977480400E-02   0.9484710055E-04  -0.4489969292E-08   0.9484710055E-04  -0.4489969292E-08   0.2938403002E-01   0.8665685756E-02   0.0000000000E+00  -0.2589567124E-03
   0.2515225485E+00   0.2703833174E-01   0.8669875689E-04  -0.9327782156E-07   0.8669875689E-04  -0.9327782156E-07   0.2673307848E-01   0.6740473104E-02   0.0000000000E+00  -0.2536490295E-02
   0.2661392510E+00   0.6956077167E-01   0.8656701014E-04  -0.6305626945E-06   0.8656701014E-04  -0.6305626945E-06   0.3306109568E-01   0.5345471057E-02   0.0000000000E+00  -0.4262715447E-02
   0.2469558357E+00   0.7419816828E-01   0.8318285718E-04  -0.9180095456E-06   0.8318285718E-04  -0.9180095456E-06   0.3334175959E-01   0.3985590019E-02   0.0000000000E+00  -0.5589774946E-02
   0.2655131858E+00   0.7801122811E-01   0.8592238809E-04  -0.8501463385E-06   0.8592238809E-04  -0.8501463385E-06   0.3449298934E-01   0.4772595763E-02   0.0000000000E+00  -0.4476963492E-02
   0.2559213644E+00   0.8032990123E-01   0.8416219050E-04  -0.1010186306E-05   0.8416219050E-04  -0.1010186306E-05   0.3469442884E-01   0.4157067349E-02   0.0000000000E+00  -0.5098268458E-02
   0.2565475759E+00   0.7187949801E-01   0.8489494069E-04  -0.7602941129E-06   0.8489494069E-04  -0.7602941129E-06   0.3318307550E-01   0.4677225287E-02   0.0000000000E+00  -0.4912974098E-02
   0.2094589217E+00   0.2677836823E-01   0.8190633821E-04  -0.2114364213E-06   0.8190633821E-04  -0.2114364213E-06   0.2200123729E-01   0.4116233034E-02   0.0000000000E+00  -0.4265647675E-02
   0.2147106693E+00   0.3575797610E-01   0.8187513888E-04  -0.3080495154E-06   0.8187513888E-04  -0.3080495154E-06   0.2410287600E-01   0.4138967396E-02   0.0000000000E+00  -0.5220118697E-02
   0.1722634352E+00   0.5294268842E-01   0.7494861292E-04  -0.1485091907E-05   0.7494861292E-04  -0.1485091907E-05   0.2379725754E-01  -0.2531573187E-02   0.0000000000E+00  -0.1062108548E-01
   0.1829685368E+00   0.5311694171E-01   0.7625391288E-04  -0.1198643643E-05   0.7625391288E-04  -0.1198643643E-05   0.2493489175E-01  -0.9136334149E-03   0.0000000000E+00  -0.9624193106E-02
   0.1777182612E+00   0.4415716186E-01   0.7692462309E-04  -0.9669195152E-06   0.7692462309E-04  -0.9669195152E-06   0.2152277857E-01  -0.9368873285E-03   0.0000000000E+00  -0.8910583480E-02
   0.1884230742E+00   0.4433123292E-01   0.7808561117E-04  -0.7716417708E-06   0.7808561117E-04  -0.7716417708E-06   0.2256913517E-01   0.6359760460E-03   0.0000000000E+00  -0.8071721558E-02
   0.2325594969E+00   0.8725627516E-01   0.7952494788E-04  -0.1613018501E-05   0.7952494788E-04  -0.1613018501E-05   0.3587204466E-01   0.2023372535E-02   0.0000000000E+00  -0.6711355915E-02
   0.2148846057E+00   0.8963345664E-01   0.7607635968E-04  -0.2146128776E-05   0.7607635968E-04  -0.2146128776E-05   0.3656319469E-01   0.1575862692E-03   0.0000000000E+00  -0.7901581486E-02
   0.2247638647E+00   0.7173328518E-01   0.7988236173E-04  -0.1126658740E-05   0.7988236173E-04  -0.1126658740E-05   0.3222531435E-01   0.2435448922E-02   0.0000000000E+00  -0.7065417376E-02
   0.2237220845E+00   0.8844491292E-01   0.7782076676E-04  -0.1857942075E-05   0.7782076676E-04  -0.1857942075E-05   0.3615092005E-01   0.1080422671E-02   0.0000000000E+00  -0.7303966327E-02
   0.2198243933E+00   0.8068348089E-01   0.7806214213E-04  -0.1581403866E-05   0.7806214213E-04  -0.1581403866E-05   0.3439161504E-01   0.1303705240E-02   0.0000000000E+00  -0.7489557425E-02
   0.2286616417E+00   0.7949479728E-01   0.7968384093E-04  -0.1359459936E-05   0.7968384093E-04  -0.1359459936E-05   0.3403504326E-01   0.2205113108E-02   0.0000000000E+00  -0.6891092929E-02
   0.2358424863E+00   0.5426785797E-01   0.8313613426E-04  -0.5062666928E-06   0.8313613426E-04  -0.5062666928E-06   0.2912537041E-01   0.4553371102E-02   0.0000000000E+00  -0.5472944083E-02
   0.2252452963E+00   0.5395088326E-01   0.8170264371E-04  -0.5868211291E-06   0.8170264371E-04  -0.5868211291E-06   0.2846244950E-01   0.3756862646E-02   0.0000000000E+00  -0.6189284748E-02
   0.2199418075E+00   0.4475159481E-01   0.8179874739E-04  -0.4306967901E-06   0.8179874739E-04  -0.4306967901E-06   0.2628626316E-01   0.3936398642E-02   0.0000000000E+00  -0.5727936939E-02
   0.2305387576E+00   0.4506853850E-01   0.8311981140E-04  -0.3656501266E-06   0.8311981140E-04  -0.3656501266E-06   0.2706726588E-01   0.4700163527E-02   0.0000000000E+00  -0.5087557858E-02
   0.1573033668E+00   0.2626246905E-01   0.7748789262E-04  -0.8012256929E-06   0.7748789262E-04  -0.8012256929E-06   0.1179945443E-01  -0.3651838171E-02   0.0000000000E+00  -0.7130134473E-02
   0.3189415417E+00   0.0000000000E+00   0.9575883778E-04   0.0000000000E+00   0.9575883778E-04   0.0000000000E+00   0.2957884688E-01   0.8800325946E-02   0.0000000000E+00   0.1764375646E-04
   0.3069350204E+00   0.5399890490E-01   0.9346417655E-04  -0.2278990839E-06   0.9346417655E-04  -0.2278990839E-06   0.3216996627E-01   0.7416390293E-02   0.0000000000E+00  -0.1747085713E-02
   0.3050547993E+00   0.2672362923E-01   0.9372115093E-04  -0.3988518021E-07   0.9372115093E-04  -0.3988518021E-07   0.2981824833E-01   0.8265978860E-02   0.0000000000E+00  -0.9956823339E-03
   0.7473865048E-01   0.1106056292E+00   0.3570268817E-04  -0.2287588279E-04   0.3570268817E-04  -0.2287588279E-04   0.6996574110E-01  -0.3371958753E-02   0.0000000000E+00  -0.5722362362E-02
   0.6519413640E-01   0.1061763072E+00   0.3397789961E-04  -0.2503892293E-04   0.3397789961E-04  -0.2503892293E-04   0.7349951905E-01   0.2150636324E-02   0.0000000000E+00  -0.1070572727E-01
   0.7405955727E-01   0.9985433903E-01   0.3970978323E-04  -0.2187298682E-04   0.3970978323E-04  -0.2187298682E-04   0.6271713668E-01  -0.1268865534E-02   0.0000000000E+00  -0.1092456231E-01
   0.8418715361E-01   0.9268638944E-01   0.4595700277E-04  -0.1819952809E-04   0.4595700277E-04  -0.1819952809E-04   0.5533280187E-01  -0.4031102114E-02   0.0000000000E+00  -0.1333854435E-01
   0.1263196919E+00   0.1993153186E+00   0.3634394628E-04  -0.2247371711E-04   0.3634394628E-04  -0.2247371711E-04   0.5996281038E-01  -0.2756898739E-02   0.0000000000E+00   0.4335714284E-02
   0.1159041882E+00   0.1826956577E+00   0.3526308347E-04  -0.2263466212E-04   0.3526308347E-04  -0.2263466212E-04   0.6101201502E-01  -0.4140444814E-02   0.0000000000E+00   0.4971851346E-02
   0.1310274138E+00   0.1908149299E+00   0.3886892440E-04  -0.2072605238E-04   0.3886892440E-04  -0.2072605238E-04   0.5994359638E-01  -0.3624155679E-02   0.0000000000E+00   0.3612505932E-02
   0.1211119453E+00   0.1910054730E+00   0.3580814069E-04  -0.2255800655E-04   0.3580814069E-04  -0.2255800655E-04   0.6045031870E-01  -0.3494327572E-02   0.0000000000E+00   0.4631558586E-02
   0.1258197245E+00   0.1825052073E+00   0.3836126500E-04  -0.2074883752E-04   0.3836126500E-04  -0.2074883752E-04   0.6049028782E-01  -0.4320135245E-02   0.0000000000E+00   0.3927571250E-02
   0.1171188915E+00   0.6837013920E-01   0.6320523300E-04  -0.7522297836E-05   0.6320523300E-04  -0.7522297836E-05   0.2968875097E-01  -0.1330916974E-01   0.0000000000E+00  -0.1350951354E-01
   0.1135839005E+00   0.5835537689E-01   0.6622475363E-04  -0.7133553287E-05   0.6622475363E-04  -0.7133553287E-05   0.2145156551E-01  -0.1310126712E-01   0.0000000000E+00  -0.1240499780E-01
   0.1488210795E+00   0.5214874701E-01   0.7228976207E-04  -0.2487242564E-05   0.7228976207E-04  -0.2487242564E-05   0.2104842100E-01  -0.7142125269E-02   0.0000000000E+00  -0.1258181299E-01
   0.1556100928E+00   0.4344498127E-01   0.7476340570E-04  -0.1614262952E-05   0.7476340570E-04  -0.1614262952E-05   0.1808382564E-01  -0.5134606085E-02   0.0000000000E+00  -0.1052560132E-01
   0.1673308233E+00   0.4384174294E-01   0.7587264252E-04  -0.1217681577E-05   0.7587264252E-04  -0.1217681577E-05   0.1960849612E-01  -0.2655985388E-02   0.0000000000E+00  -0.9809765166E-02
   0.1605422168E+00   0.5254588637E-01   0.7359538146E-04  -0.1901816824E-05   0.7359538146E-04  -0.1901816824E-05   0.2262963776E-01  -0.4789752138E-02   0.0000000000E+00  -0.1160077916E-01
   0.1215008708E+00   0.2077477123E+00   0.3382140919E-04  -0.2421485077E-04   0.3382140919E-04  -0.2421485077E-04   0.5945874650E-01  -0.1990007237E-02   0.0000000000E+00   0.4476524725E-02
   0.1117581415E+00   0.2078071191E+00   0.3089323914E-04  -0.2605695566E-04   0.3089323914E-04  -0.2605695566E-04   0.5934117713E-01  -0.1830858369E-02   0.0000000000E+00   0.5256104139E-02
   0.1165768962E+00   0.1993747702E+00   0.3337908652E-04  -0.2429390373E-04   0.3337908652E-04  -0.2429390373E-04   0.5992246684E-01  -0.2482306590E-02   0.0000000000E+00   0.5194380487E-02
   0.8486580222E-01   0.1034375480E+00   0.4173131191E-04  -0.1926448470E-04   0.4173131191E-04  -0.1926448470E-04   0.6285897570E-01  -0.6709284702E-02   0.0000000000E+00  -0.8112427433E-02
   0.3528379975E-01   0.1447293521E+00   0.1306247510E-04  -0.3523843840E-04   0.1306247510E-04  -0.3523843840E-04   0.7635060330E-01   0.9880454063E-02   0.0000000000E+00   0.4347326927E-02
   0.3652671328E-01   0.1233297054E+00   0.1685868934E-04  -0.3349832185E-04   0.1685868934E-04  -0.3349832185E-04   0.8910722056E-01   0.1047390275E-01   0.0000000000E+00  -0.2374403463E-02
   0.3040953019E+00   0.2145476216E+00   0.8706946532E-04  -0.8097695124E-05   0.8706946532E-04  -0.8097695124E-05   0.5659835390E-01   0.3556738037E-03   0.0000000000E+00  -0.1047736050E-02
   0.4266644189E-01   0.1702381225E+00   0.1340689413E-04  -0.3575526386E-04   0.1340689413E-04  -0.3575526386E-04   0.6546957062E-01   0.5633454895E-02   0.0000000000E+00   0.6671830949E-02
   0.5088909703E-01   0.1752081686E+00   0.1564241258E-04  -0.3476317988E-04   0.1564241258E-04  -0.3476317988E-04   0.6388261279E-01   0.3785203535E-02   0.0000000000E+00   0.7508982055E-02
   0.7065512898E-01   0.1571998266E+00   0.2392709243E-04  -0.2925271326E-04   0.2392709243E-04  -0.2925271326E-04   0.6760833809E-01  -0.3778370976E-03   0.0000000000E+00   0.7000791584E-02
   0.6108520533E-01   0.1613806064E+00   0.2020771280E-04  -0.3168628588E-04   0.2020771280E-04  -0.3168628588E-04   0.6745799381E-01   0.1926789464E-02   0.0000000000E+00   0.7271194001E-02
   0.6226912402E-01   0.1510734341E+00   0.2187061152E-04  -0.3046894581E-04   0.2187061152E-04  -0.3046894581E-04   0.6986748495E-01   0.1582838468E-02   0.0000000000E+00   0.6138922777E-02
   0.8503448319E-01   0.1702045941E+00   0.2704984609E-04  -0.2753743023E-04   0.2704984609E-04  -0.2753743023E-04   0.6403562801E-01  -0.2489302403E-02   0.0000000000E+00   0.7120627701E-02
   0.8065937841E-01   0.1852950574E+00   0.2400020529E-04  -0.2998977518E-04   0.2400020529E-04  -0.2998977518E-04   0.6147578338E-01  -0.1066435797E-02   0.0000000000E+00   0.7721652648E-02
   0.6750278048E-01   0.1766373608E+00   0.2074549088E-04  -0.3179460663E-04   0.2074549088E-04  -0.3179460663E-04   0.6334329728E-01   0.6891615178E-03   0.0000000000E+00   0.8050830920E-02
   0.8284684016E-01   0.1777497801E+00   0.2547973187E-04  -0.2879045344E-04   0.2547973187E-04  -0.2879045344E-04   0.6274758472E-01  -0.1633116863E-02   0.0000000000E+00   0.7444038093E-02
   0.7408111343E-01   0.1809662110E+00   0.2239171296E-04  -0.3089148128E-04   0.2239171296E-04  -0.3089148128E-04   0.6225658772E-01  -0.2932315137E-03   0.0000000000E+00   0.7804969076E-02
   0.7626855698E-01   0.1734208785E+00   0.2385838796E-04  -0.2971177159E-04   0.2385838796E-04  -0.2971177159E-04   0.6387641819E-01  -0.9056553410E-03   0.0000000000E+00   0.7626470301E-02
   0.2937841067E+00   0.2663935864E-01   0.9219083388E-04  -0.4582986105E-07   0.9219083388E-04  -0.4582986105E-07   0.2941339950E-01   0.8070536748E-02   0.0000000000E+00  -0.1279223818E-02
   0.3067347256E+00   0.6246067844E-01   0.9321432228E-04  -0.3376787413E-06   0.9321432228E-04  -0.3376787413E-06   0.3310142119E-01   0.7002982175E-02   0.0000000000E+00  -0.1963332502E-02
   0.3071992909E+00   0.7216485741E-01   0.9300895047E-04  -0.4984472613E-06   0.9300895047E-04  -0.4984472613E-06   0.3435352370E-01   0.6563740223E-02   0.0000000000E+00  -0.2080631572E-02
   0.9665835058E-01   0.1838121042E+00   0.2912883778E-04  -0.2658737624E-04   0.2912883778E-04  -0.2658737624E-04   0.6155595730E-01  -0.2826833882E-02   0.0000000000E+00   0.6779590498E-02
   0.1062812700E+00   0.1832539311E+00   0.3219601830E-04  -0.2458593207E-04   0.3219601830E-04  -0.2458593207E-04   0.6132509205E-01  -0.3480356286E-02   0.0000000000E+00   0.5918824292E-02
   0.1113690846E+00   0.1910648268E+00   0.3281030198E-04  -0.2442711596E-04   0.3281030198E-04  -0.2442711596E-04   0.6038609499E-01  -0.3127519629E-02   0.0000000000E+00   0.5496388470E-02
   0.1017462624E+00   0.1916231057E+00   0.2979168198E-04  -0.2638316480E-04   0.2979168198E-04  -0.2638316480E-04   0.6060666158E-01  -0.2641491846E-02   0.0000000000E+00   0.6357814356E-02
   0.2989782041E+00   0.1627428066E+00   0.8773553931E-04  -0.4344702225E-05   0.8773553931E-04  -0.4344702225E-05   0.4883658047E-01   0.1812954304E-02   0.0000000000E+00  -0.2200466136E-02
   0.2975120352E+00   0.1728671672E+00   0.8692360507E-04  -0.5042403071E-05   0.8692360507E-04  -0.5042403071E-05   0.5048270303E-01   0.1407514630E-02   0.0000000000E+00  -0.2065879438E-02
   0.3074033965E+00   0.1678576617E+00   0.8957626879E-04  -0.4552151533E-05   0.8957626879E-04  -0.4552151533E-05   0.4954871706E-01   0.1766910609E-02   0.0000000000E+00  -0.1794709065E-02
   0.3059373440E+00   0.1779820060E+00   0.8883800776E-04  -0.5258514130E-05   0.8883800776E-04  -0.5258514130E-05   0.5117786853E-01   0.1385320946E-02   0.0000000000E+00  -0.1674378879E-02
   0.3246150291E+00   0.1681881604E+00   0.9377206926E-04  -0.4392820554E-05   0.9377206926E-04  -0.4392820554E-05   0.4940079397E-01   0.1969724852E-02   0.0000000000E+00  -0.1084654161E-02
   0.3078828744E+00   0.2070582245E+00   0.8836372209E-04  -0.7419231926E-05   0.8836372209E-04  -0.7419231926E-05   0.5550523254E-01   0.5599377442E-03   0.0000000000E+00  -0.1125967230E-02
   0.2969105431E+00   0.2083224914E+00   0.8527406032E-04  -0.7728311339E-05   0.8527406032E-04  -0.7728311339E-05   0.5590942156E-01   0.4562993968E-03   0.0000000000E+00  -0.1333183843E-02
   0.2832988673E+00   0.1692495846E+00   0.8355963535E-04  -0.5086199751E-05   0.8355963535E-04  -0.5086199751E-05   0.5022336859E-01   0.1226761436E-02   0.0000000000E+00  -0.2606907559E-02
   0.2824959695E+00   0.1531926702E+00   0.8430776503E-04  -0.4044882806E-05   0.8430776503E-04  -0.4044882806E-05   0.4756711553E-01   0.1747296842E-02   0.0000000000E+00  -0.3010934845E-02
   0.2828974196E+00   0.1612211605E+00   0.8392678146E-04  -0.4552733625E-05   0.8392678146E-04  -0.4552733625E-05   0.4888653913E-01   0.1470151531E-02   0.0000000000E+00  -0.2809197243E-02
   0.2907370245E+00   0.1579677557E+00   0.8599025340E-04  -0.4182646107E-05   0.8599025340E-04  -0.4182646107E-05   0.4821751828E-01   0.1798156749E-02   0.0000000000E+00  -0.2593474004E-02
   0.2911385722E+00   0.1659962324E+00   0.8567310184E-04  -0.4696810317E-05   0.8567310184E-04  -0.4696810317E-05   0.4951890031E-01   0.1529487185E-02   0.0000000000E+00  -0.2409954798E-02
   0.3080828274E+00   0.1298334943E+00   0.9115468854E-04  -0.2389357750E-05   0.9115468854E-04  -0.2389357750E-05   0.4326905886E-01   0.3496061934E-02   0.0000000000E+00  -0.2194701325E-02
   0.2041332685E+00   0.7156913978E-01   0.7664975466E-04  -0.1514959824E-05   0.7664975466E-04  -0.1514959824E-05   0.3164864630E-01   0.3109133009E-03   0.0000000000E+00  -0.8693198779E-02
   0.2144485671E+00   0.7165125452E-01   0.7826602503E-04  -0.1301639276E-05   0.7826602503E-04  -0.1301639276E-05   0.3196377289E-01   0.1380662246E-02   0.0000000000E+00  -0.7867397216E-02
   0.2093909451E+00   0.6260161855E-01   0.7858455781E-04  -0.1043024017E-05   0.7858455781E-04  -0.1043024017E-05   0.2956754227E-01   0.1620859790E-02   0.0000000000E+00  -0.7799519888E-02
   0.2197059902E+00   0.6268360984E-01   0.8007457955E-04  -0.8914804672E-06   0.8007457955E-04  -0.8914804672E-06   0.2984706528E-01   0.2618741994E-02   0.0000000000E+00  -0.7030753546E-02
   0.2994447257E+00   0.1439991384E+00   0.8868684364E-04  -0.3214295380E-05   0.8868684364E-04  -0.3214295380E-05   0.4571311415E-01   0.2610421257E-02   0.0000000000E+00  -0.2470724612E-02
   0.3080147932E+00   0.1393108050E+00   0.9078409762E-04  -0.2862016955E-05   0.9078409762E-04  -0.2862016955E-05   0.4483956218E-01   0.3026419192E-02   0.0000000000E+00  -0.2110466093E-02
   0.3164713705E+00   0.1441621166E+00   0.9249274631E-04  -0.3040696754E-05   0.9249274631E-04  -0.3040696754E-05   0.4554460332E-01   0.2932693889E-02   0.0000000000E+00  -0.1667369529E-02
   0.3079013429E+00   0.1488504851E+00   0.9040043833E-04  -0.3382952366E-05   0.9040043833E-04  -0.3382952366E-05   0.4643393050E-01   0.2572953035E-02   0.0000000000E+00  -0.2020163773E-02
   0.2817962247E+00   0.7700492298E-01   0.8866585112E-04  -0.7085124887E-06   0.8866585112E-04  -0.7085124887E-06   0.3459305095E-01   0.5582357631E-02   0.0000000000E+00  -0.3539910516E-02
   0.2730172579E+00   0.6267401557E-01   0.8802143784E-04  -0.4508649021E-06   0.8802143784E-04  -0.4508649021E-06   0.3224626598E-01   0.5997322704E-02   0.0000000000E+00  -0.3631335114E-02
   0.2808456875E+00   0.6639610151E-01   0.8904225369E-04  -0.4846938827E-06   0.8904225369E-04  -0.4846938827E-06   0.3304487123E-01   0.6090275801E-02   0.0000000000E+00  -0.3327055397E-02
   0.2739676910E+00   0.7328285165E-01   0.8759298252E-04  -0.6673732846E-06   0.8759298252E-04  -0.6673732846E-06   0.3386915496E-01   0.5486101023E-02   0.0000000000E+00  -0.3891830677E-02
   0.3075245683E+00   0.8178636619E-01   0.9276312637E-04  -0.6994067582E-06   0.9276312637E-04  -0.6994067582E-06   0.3566336388E-01   0.6048523343E-02   0.0000000000E+00  -0.2211952464E-02
   0.2987544249E+00   0.7699680491E-01   0.9146395105E-04  -0.6250471498E-06   0.9146395105E-04  -0.6250471498E-06   0.3491808149E-01   0.6093948415E-02   0.0000000000E+00  -0.2601344410E-02
   0.3160934108E+00   0.1633371648E+00   0.9183388408E-04  -0.4160610625E-05   0.9183388408E-04  -0.4160610625E-05   0.4867374590E-01   0.2062564414E-02   0.0000000000E+00  -0.1499946550E-02
   0.1604805799E+00   0.2076752086E+00   0.4562296746E-04  -0.1770769294E-04   0.4562296746E-04  -0.1770769294E-04   0.5988395753E-01  -0.1897823469E-02   0.0000000000E+00   0.1361791278E-02
   0.1507309331E+00   0.2076977718E+00   0.4266704811E-04  -0.1918162188E-04   0.4266704811E-04  -0.1918162188E-04   0.6013937623E-01  -0.2017285769E-02   0.0000000000E+00   0.2132697190E-02
   0.1410002959E+00   0.2077124939E+00   0.3971644584E-04  -0.2076102579E-04   0.3971644584E-04  -0.2076102579E-04   0.5986563166E-01  -0.2095440619E-02   0.0000000000E+00   0.2884306680E-02
   0.1282629695E+00   0.8318853523E-01   0.6044773800E-04  -0.7475933361E-05   0.6044773800E-04  -0.7475933361E-05   0.3981290011E-01  -0.1211688675E-01   0.0000000000E+00  -0.1323005866E-01
   0.1284394954E+00   0.1031094612E+00   0.5461020367E-04  -0.9977907188E-05   0.5461020367E-04  -0.9977907188E-05   0.5006585697E-01  -0.1185582492E-01   0.0000000000E+00  -0.9617800592E-02
   0.1144533268E+00   0.9386507861E-01   0.5372437892E-04  -0.1111404528E-04   0.5372437892E-04  -0.1111404528E-04   0.4848478838E-01  -0.1247174872E-01   0.0000000000E+00  -0.1117234887E-01
   0.1283510736E+00   0.9314907129E-01   0.5744929045E-04  -0.8692156547E-05   0.5744929045E-04  -0.8692156547E-05   0.4502450764E-01  -0.1182648135E-01   0.0000000000E+00  -0.1147203542E-01
   0.1214462580E+00   0.9848738621E-01   0.5409051571E-04  -0.1048589296E-04   0.5409051571E-04  -0.1048589296E-04   0.4949713136E-01  -0.1215072204E-01   0.0000000000E+00  -0.1042557738E-01
   0.1213583589E+00   0.8852701169E-01   0.5719146956E-04  -0.9192603877E-05   0.5719146956E-04  -0.9192603877E-05   0.4388337468E-01  -0.1250075633E-01   0.0000000000E+00  -0.1201586327E-01
   0.7386725241E-01   0.1910955899E+00   0.2136375749E-04  -0.3187406423E-04   0.2136375749E-04  -0.3187406423E-04   0.6026001646E-01  -0.1347143184E-03   0.0000000000E+00   0.7669607558E-02
   0.6728900201E-01   0.1867667898E+00   0.1976255554E-04  -0.3274461699E-04   0.1976255554E-04  -0.3274461699E-04   0.6106130253E-01   0.7235648858E-03   0.0000000000E+00   0.7923661982E-02
   0.2583605666E+00   0.2078405427E+00   0.7444729178E-04  -0.8920626641E-05   0.7444729178E-04  -0.8920626641E-05   0.5700292483E-01   0.6337141599E-04   0.0000000000E+00  -0.1838842309E-02
   0.2483805582E+00   0.2077695386E+00   0.7160057810E-04  -0.9389692522E-05   0.7160057810E-04  -0.9389692522E-05   0.5736623565E-01  -0.6248326833E-04   0.0000000000E+00  -0.1860060689E-02
   0.1945873578E+00   0.1822018153E+00   0.5884142267E-04  -0.1103537241E-04   0.5884142267E-04  -0.1103537241E-04   0.5614990147E-01  -0.2383704046E-02   0.0000000000E+00  -0.1804354347E-02
   0.1897064729E+00   0.1906907569E+00   0.5641496101E-04  -0.1235254788E-04   0.5641496101E-04  -0.1235254788E-04   0.5736191600E-01  -0.2183016646E-02   0.0000000000E+00  -0.1105528344E-02
   0.1799416493E+00   0.1906777248E+00   0.5356712583E-04  -0.1344460886E-04   0.5356712583E-04  -0.1344460886E-04   0.5801271647E-01  -0.2532083926E-02   0.0000000000E+00  -0.5299069706E-03
   0.1848226477E+00   0.1821889344E+00   0.5605033958E-04  -0.1204432250E-04   0.5605033958E-04  -0.1204432250E-04   0.5673648140E-01  -0.2869832297E-02   0.0000000000E+00  -0.1262046996E-02
   0.2538380631E+00   0.1824289385E+00   0.7507253190E-04  -0.7027230345E-05   0.7507253190E-04  -0.7027230345E-05   0.5325666504E-01   0.1163231733E-03   0.0000000000E+00  -0.2794712312E-02
   0.2337267086E+00   0.1824606565E+00   0.6966980459E-04  -0.8043738630E-05   0.6966980459E-04  -0.8043738630E-05   0.5409374862E-01  -0.5924747214E-03   0.0000000000E+00  -0.2814586727E-02
   0.2486823892E+00   0.1908779057E+00   0.7300562350E-04  -0.7946631923E-05   0.7300562350E-04  -0.7946631923E-05   0.5475581648E-01  -0.8172051682E-04   0.0000000000E+00  -0.2482373840E-02
   0.2386265882E+00   0.1908937346E+00   0.7023859094E-04  -0.8473704766E-05   0.7023859094E-04  -0.8473704766E-05   0.5519827626E-01  -0.3446437041E-03   0.0000000000E+00  -0.2478768182E-02
   0.2437824199E+00   0.1824448679E+00   0.7238442918E-04  -0.7496533416E-05   0.7238442918E-04  -0.7496533416E-05   0.5364475516E-01  -0.2454686467E-03   0.0000000000E+00  -0.2824222168E-02
   0.2535065271E+00   0.1993978468E+00   0.7367905345E-04  -0.8426604852E-05   0.7367905345E-04  -0.8426604852E-05   0.5589431282E-01  -0.4524239887E-05   0.0000000000E+00  -0.2160805981E-02
   0.1312402128E+00   0.2077506936E+00   0.3675790474E-04  -0.2244821023E-04   0.3675790474E-04  -0.2244821023E-04   0.5995970190E-01  -0.2102033452E-02   0.0000000000E+00   0.3725149534E-02
   0.2920907973E+00   0.2002716709E+00   0.8427817301E-04  -0.7187562499E-05   0.8427817301E-04  -0.7187562499E-05   0.5485263849E-01   0.5586159602E-03   0.0000000000E+00  -0.1631716366E-02
   0.2897646822E+00   0.1913508692E+00   0.8406210164E-04  -0.6545911104E-05   0.8406210164E-04  -0.6545911104E-05   0.5356866780E-01   0.7642595376E-03   0.0000000000E+00  -0.1883418033E-02
   0.2883030480E+00   0.2077610304E+00   0.8289550143E-04  -0.7884801248E-05   0.8289550143E-04  -0.7884801248E-05   0.5604638031E-01   0.4213139231E-03   0.0000000000E+00  -0.1509682266E-02
   0.1555895245E+00   0.1992164370E+00   0.4522673089E-04  -0.1757751497E-04   0.4522673089E-04  -0.1757751497E-04   0.5956334708E-01  -0.2566985875E-02   0.0000000000E+00   0.1701600681E-02
   0.1360797960E+00   0.1992772173E+00   0.3931301896E-04  -0.2073734127E-04   0.3931301896E-04  -0.2073734127E-04   0.5991477559E-01  -0.2741519786E-02   0.0000000000E+00   0.3435124250E-02
   0.1994501259E+00   0.1906995796E+00   0.5922744705E-04  -0.1137571119E-04   0.5922744705E-04  -0.1137571119E-04   0.5700969380E-01  -0.1755662095E-02   0.0000000000E+00  -0.1572232230E-02
   0.2514169571E+00   0.1519971467E+00   0.7701202828E-04  -0.4844140333E-05   0.7701202828E-04  -0.4844140333E-05   0.4830909131E-01   0.4884399036E-03   0.0000000000E+00  -0.4008630686E-02
   0.2346063610E+00   0.1494336206E+00   0.7319000564E-04  -0.5353192853E-05   0.7319000564E-04  -0.5353192853E-05   0.4861231904E-01  -0.4473461708E-03   0.0000000000E+00  -0.4461367562E-02
   0.2481922991E+00   0.1359804227E+00   0.7771907094E-04  -0.3876653453E-05   0.7771907094E-04  -0.3876653453E-05   0.4553943851E-01   0.7547774511E-03   0.0000000000E+00  -0.4734735993E-02
   0.2430116534E+00   0.1507154148E+00   0.7510168907E-04  -0.5079079144E-05   0.7510168907E-04  -0.5079079144E-05   0.4842809436E-01   0.1070590122E-04   0.0000000000E+00  -0.4239119651E-02
   0.2413994305E+00   0.1427071115E+00   0.7550075163E-04  -0.4573762014E-05   0.7550075163E-04  -0.4573762014E-05   0.4708804628E-01   0.1566412477E-03   0.0000000000E+00  -0.4596054574E-02
   0.2498045935E+00   0.1439888029E+00   0.7734826431E-04  -0.4351067107E-05   0.7734826431E-04  -0.4351067107E-05   0.4692148990E-01   0.6034257119E-03   0.0000000000E+00  -0.4366415139E-02
   0.5866917529E-01   0.1908753837E+00   0.1683984463E-04  -0.3465863223E-04   0.1683984463E-04  -0.3465863223E-04   0.5978764931E-01   0.1823142663E-02   0.0000000000E+00   0.7494290036E-02
   0.6907875759E-01   0.1669185195E+00   0.2223959661E-04  -0.3056072620E-04   0.2223959661E-04  -0.3056072620E-04   0.6547818066E-01   0.3192484796E-03   0.0000000000E+00   0.7580371725E-02
   0.7784482709E-01   0.1637022428E+00   0.2549899367E-04  -0.2837509775E-04   0.2549899367E-04  -0.2837509775E-04   0.6556976511E-01  -0.1695587379E-02   0.0000000000E+00   0.6901256131E-02
   0.6514666504E-01   0.1168424610E+00   0.3014272018E-04  -0.2617500831E-04   0.3014272018E-04  -0.2617500831E-04   0.7581015186E-01   0.7896143333E-03   0.0000000000E+00  -0.3417690959E-02
   0.7638904502E-01   0.1347190522E+00   0.2967966124E-04  -0.2540240867E-04   0.2967966124E-04  -0.2540240867E-04   0.7064056435E-01  -0.3280787758E-02   0.0000000000E+00   0.2917536355E-02
   0.6597197171E-01   0.1288994547E+00   0.2718775708E-04  -0.2729915800E-04   0.2718775708E-04  -0.2729915800E-04   0.7389597725E-01  -0.7253606317E-04   0.0000000000E+00   0.8977542260E-03
   0.7556299936E-01   0.1226623519E+00   0.3226882847E-04  -0.2413155123E-04   0.3226882847E-04  -0.2413155123E-04   0.7037007906E-01  -0.3473204797E-02   0.0000000000E+00  -0.9447069727E-03
   0.2570903899E+00   0.3617508735E-01   0.8705244583E-04  -0.1507231763E-06   0.8705244583E-04  -0.1507231763E-06   0.2808746875E-01   0.6693747611E-02   0.0000000000E+00  -0.3077443574E-02
   0.2784415202E+00   0.3597100911E-01   0.8989962385E-04  -0.1094471808E-06   0.8989962385E-04  -0.1094471808E-06   0.2937589499E-01   0.7460060842E-02   0.0000000000E+00  -0.2228864016E-02
   0.2834216822E+00   0.2680496688E-01   0.9080109538E-04  -0.5401087970E-07   0.9080109538E-04  -0.5401087971E-07   0.2885120191E-01   0.7819258016E-02   0.0000000000E+00  -0.1543995483E-02
   0.2411016697E+00   0.4516217568E-01   0.8449085089E-04  -0.3106591420E-06   0.8449085089E-04  -0.3106591420E-06   0.2808108036E-01   0.5389700444E-02   0.0000000000E+00  -0.4468720057E-02
   0.2141286113E+00   0.1823137449E+00   0.6431214978E-04  -0.9348072190E-05   0.6431214978E-04  -0.9348072190E-05   0.5504472311E-01  -0.1436125378E-02   0.0000000000E+00  -0.2506955650E-02
   0.2043580251E+00   0.1822578764E+00   0.6159353458E-04  -0.1013977694E-04   0.6159353458E-04  -0.1013977694E-04   0.5556517738E-01  -0.1919712219E-02   0.0000000000E+00  -0.2182651480E-02
   0.2092208461E+00   0.1907555997E+00   0.6201353795E-04  -0.1050812961E-04   0.6201353795E-04  -0.1050812961E-04   0.5642604280E-01  -0.1405870171E-02   0.0000000000E+00  -0.1931651213E-02
   0.1936623826E+00   0.7150726714E-01   0.7500129515E-04  -0.1784681815E-05   0.7500129515E-04  -0.1784681815E-05   0.3144203008E-01  -0.1091883901E-02   0.0000000000E+00  -0.9583961501E-02
   0.1884328594E+00   0.6236831058E-01   0.7560218799E-04  -0.1473558180E-05   0.7560218799E-04  -0.1473558180E-05   0.2849690514E-01  -0.9315155732E-03   0.0000000000E+00  -0.9565106405E-02
   0.1989034321E+00   0.6243013171E-01   0.7709404018E-04  -0.1231446260E-05   0.7709404018E-04  -0.1231446260E-05   0.2869758681E-01   0.4339556294E-03   0.0000000000E+00  -0.8697552731E-02
   0.2571615799E+00   0.5435142415E-01   0.8613997136E-04  -0.3793730738E-06   0.8613997136E-04  -0.3793730738E-06   0.3034396347E-01   0.5789309510E-02   0.0000000000E+00  -0.4179193612E-02
   0.2517610605E+00   0.4520392182E-01   0.8591074166E-04  -0.2656899896E-06   0.8591074166E-04  -0.2656899896E-06   0.2868128525E-01   0.5955804533E-02   0.0000000000E+00  -0.3902315794E-02
   0.2624910777E+00   0.4532265803E-01   0.8736587391E-04  -0.2302833879E-06   0.8736587391E-04  -0.2302833879E-06   0.2947856057E-01   0.6454599521E-02   0.0000000000E+00  -0.3381651558E-02
   0.2821515966E+00   0.9624916400E-01   0.8767181302E-04  -0.1266151719E-05   0.8767181302E-04  -0.1266151719E-05   0.3771433669E-01   0.4499339405E-02   0.0000000000E+00  -0.3725099700E-02
   0.2906156386E+00   0.9143374885E-01   0.8944681123E-04  -0.1042974905E-05   0.8944681123E-04  -0.1042974905E-05   0.3696759544E-01   0.5054707851E-02   0.0000000000E+00  -0.3218195254E-02
   0.2908091821E+00   0.1010655981E+00   0.8900354254E-04  -0.1355963654E-05   0.8900354254E-04  -0.1355963654E-05   0.3856141272E-01   0.4550589339E-02   0.0000000000E+00  -0.3232176744E-02
   0.1485770493E+00   0.2561349352E-01   0.7703166956E-04  -0.1024787672E-05   0.7703166956E-04  -0.1024787672E-05   0.9734181965E-02  -0.6185144420E-02   0.0000000000E+00  -0.7295169446E-02
   0.1468832499E+00   0.4279567733E-01   0.7405893402E-04  -0.2002033658E-05   0.7405893402E-04  -0.2002033658E-05   0.1618712614E-01  -0.7223914491E-02   0.0000000000E+00  -0.1115915652E-01
   0.1405307577E+00   0.4661145021E-01   0.7263934622E-04  -0.2660045199E-05   0.7263934622E-04  -0.2660045199E-05   0.1717372017E-01  -0.9066488155E-02   0.0000000000E+00  -0.1165075749E-01
   0.2844790341E+00   0.4571773890E-01   0.9042603049E-04  -0.1804977324E-06   0.9042603049E-04  -0.1804977324E-06   0.3061709767E-01   0.7202447180E-02   0.0000000000E+00  -0.2421650818E-02
   0.2738576803E+00   0.4604051609E-01   0.8891414353E-04  -0.2069059656E-06   0.8891414353E-04  -0.2069059656E-06   0.3007557589E-01   0.6848627350E-02   0.0000000000E+00  -0.2890002544E-02
   0.2904378249E+00   0.8181160130E-01   0.8987246775E-04  -0.7776521913E-06   0.8987246775E-04  -0.7776521913E-06   0.3548525548E-01   0.5613323668E-02   0.0000000000E+00  -0.3110787631E-02
   0.2819739522E+00   0.8662709180E-01   0.8818211968E-04  -0.9632001298E-06   0.8818211968E-04  -0.9632001298E-06   0.3614584744E-01   0.5013256870E-02   0.0000000000E+00  -0.3651691899E-02
   0.1426258314E+00   0.7227214173E-01   0.6641068066E-04  -0.4620635720E-05   0.6641068066E-04  -0.4620635720E-05   0.3211600144E-01  -0.9657145290E-02   0.0000000000E+00  -0.1355579788E-01
   0.1339233479E+00   0.6608395258E-01   0.6668093441E-04  -0.4910011795E-05   0.6668093441E-04  -0.4910011795E-05   0.2848574729E-01  -0.1093140484E-01   0.0000000000E+00  -0.1367956054E-01
   0.1370215667E+00   0.5602258141E-01   0.6992136353E-04  -0.3682095260E-05   0.6992136353E-04  -0.3682095260E-05   0.2204083735E-01  -0.9852533201E-02   0.0000000000E+00  -0.1323273495E-01
   0.1457237896E+00   0.6221064364E-01   0.6951381516E-04  -0.3454278753E-05   0.6951381516E-04  -0.3454278753E-05   0.2664432697E-01  -0.8613211889E-02   0.0000000000E+00  -0.1319637159E-01
   0.6513587980E-01   0.1398327613E+00   0.2464575220E-04  -0.2868633102E-04   0.2464575220E-04  -0.2868633102E-04   0.7250988278E-01   0.5871834202E-03   0.0000000000E+00   0.4372592527E-02
   0.1247742172E+00   0.1649626420E+00   0.4050860460E-04  -0.1887602235E-04   0.4050860460E-04  -0.1887602235E-04   0.6098924998E-01  -0.6381190049E-02   0.0000000000E+00   0.2609555589E-02
   0.1144608195E+00   0.1657474278E+00   0.3713026722E-04  -0.2093159545E-04   0.3713026722E-04  -0.2093159545E-04   0.6199041647E-01  -0.5771673674E-02   0.0000000000E+00   0.3882339219E-02
   0.1203390965E+00   0.1738291133E+00   0.3783474855E-04  -0.2076983360E-04   0.3783474855E-04  -0.2076983360E-04   0.6099761962E-01  -0.5208586149E-02   0.0000000000E+00   0.3789896596E-02
   0.1100257550E+00   0.1746138214E+00   0.3448101195E-04  -0.2286428545E-04   0.3448101195E-04  -0.2286428545E-04   0.6197326557E-01  -0.4729512302E-02   0.0000000000E+00   0.5002397117E-02
   0.2656961524E+00   0.1442557366E+00   0.8100970243E-04  -0.3884679805E-05   0.8100970243E-04  -0.3884679805E-05   0.4645809262E-01   0.1421554918E-02   0.0000000000E+00  -0.3849909484E-02
   0.2824402974E+00   0.1345843200E+00   0.8542467897E-04  -0.2958993454E-05   0.8542467897E-04  -0.2958993454E-05   0.4436923725E-01   0.2513492780E-02   0.0000000000E+00  -0.3389114798E-02
   0.2740683115E+00   0.1394200874E+00   0.8326075302E-04  -0.3392294540E-05   0.8326075302E-04  -0.3392294540E-05   0.4540012807E-01   0.1983861567E-02   0.0000000000E+00  -0.3627404084E-02
   0.2824681131E+00   0.1438885431E+00   0.8486353676E-04  -0.3481931716E-05   0.8486353676E-04  -0.3481931716E-05   0.4595839361E-01   0.2095257172E-02   0.0000000000E+00  -0.3205953310E-02
   0.2740959879E+00   0.1487242192E+00   0.8262993663E-04  -0.3953382568E-05   0.8262993663E-04  -0.3953382568E-05   0.4702597318E-01   0.1605772710E-02   0.0000000000E+00  -0.3418937280E-02
   0.3076681954E+00   0.1582223380E+00   0.8999620194E-04  -0.3938495531E-05   0.8999620194E-04  -0.3938495531E-05   0.4797353306E-01   0.2168140033E-02   0.0000000000E+00  -0.1902043255E-02
   0.2822941744E+00   0.1155387834E+00   0.8655618881E-04  -0.2022813313E-05   0.8655618881E-04  -0.2022813313E-05   0.4103890055E-01   0.3444106229E-02   0.0000000000E+00  -0.3655821270E-02
   0.2908806397E+00   0.1107104396E+00   0.8852233272E-04  -0.1718681936E-05   0.8852233272E-04  -0.1718681936E-05   0.4016039531E-01   0.4006808000E-02   0.0000000000E+00  -0.3217294569E-02
   0.2909375638E+00   0.1202916948E+00   0.8803139593E-04  -0.2127124255E-05   0.8803139593E-04  -0.2127124255E-05   0.4180937520E-01   0.3513982785E-02   0.0000000000E+00  -0.3149996351E-02
   0.2822228852E+00   0.1058940234E+00   0.8712110107E-04  -0.1619801552E-05   0.8712110107E-04  -0.1619801552E-05   0.3936600592E-01   0.3938561608E-02   0.0000000000E+00  -0.3706972597E-02
   0.2901128072E+00   0.7219012051E-01   0.9024810326E-04  -0.5589452402E-06   0.9024810326E-04  -0.5589452402E-06   0.3403861391E-01   0.6092326669E-02   0.0000000000E+00  -0.2997507858E-02
   0.2851040450E+00   0.1830126153E+00   0.8325700988E-04  -0.6029861471E-05   0.8325700988E-04  -0.6029861471E-05   0.5237639140E-01   0.8655317801E-03   0.0000000000E+00  -0.2210688779E-02
   0.2910107628E+00   0.1298145023E+00   0.8754191785E-04  -0.2579349214E-05   0.8754191785E-04  -0.2579349214E-05   0.4342837114E-01   0.3035763297E-02   0.0000000000E+00  -0.3039412612E-02
   0.2995129079E+00   0.1345219086E+00   0.8913145451E-04  -0.2708706612E-05   0.8913145451E-04  -0.2708706612E-05   0.4410560586E-01   0.3041698278E-02   0.0000000000E+00  -0.2579992669E-02
   0.2909424313E+00   0.1392917502E+00   0.8702315450E-04  -0.3076387304E-05   0.8702315450E-04  -0.3076387304E-05   0.4506242151E-01   0.2584588152E-02   0.0000000000E+00  -0.2916198629E-02
   0.2287788376E+00   0.1908593338E+00   0.6750881042E-04  -0.9066584633E-05   0.6750881042E-04  -0.9066584633E-05   0.5555636564E-01  -0.6919940517E-03   0.0000000000E+00  -0.2372794601E-02
   0.2992114636E+00   0.1533710128E+00   0.8821030851E-04  -0.3759075679E-05   0.8821030851E-04  -0.3759075679E-05   0.4726532690E-01   0.2182624802E-02   0.0000000000E+00  -0.2339368461E-02
   0.2189796779E+00   0.1907858359E+00   0.6477095866E-04  -0.9740035884E-05   0.6477095866E-04  -0.9740035884E-05   0.5605930505E-01  -0.1003289860E-02   0.0000000000E+00  -0.2207765466E-02
   0.2241424229E+00   0.1656244063E+00   0.6882392949E-04  -0.7206355204E-05   0.6882392949E-04  -0.7206355204E-05   0.5194641579E-01  -0.1179082494E-02   0.0000000000E+00  -0.3609617551E-02
   0.2436592784E+00   0.1660118754E+00   0.7382321548E-04  -0.6196318803E-05   0.7382321548E-04  -0.6196318803E-05   0.5101807956E-01  -0.1331150043E-03   0.0000000000E+00  -0.3550469398E-02
   0.2339008864E+00   0.1658182077E+00   0.7133771348E-04  -0.6664125548E-05   0.7133771348E-04  -0.6664125548E-05   0.5143653615E-01  -0.6719395450E-03   0.0000000000E+00  -0.3597565154E-02
   0.2386930457E+00   0.1742363323E+00   0.7177235330E-04  -0.7090360366E-05   0.7177235330E-04  -0.7090360366E-05   0.5256340260E-01  -0.4103870061E-03   0.0000000000E+00  -0.3184900485E-02
   0.2289344794E+00   0.1740425404E+00   0.6920718453E-04  -0.7620813649E-05   0.6920718453E-04  -0.7620813649E-05   0.5305317074E-01  -0.8278102229E-03   0.0000000000E+00  -0.3189532650E-02
   0.9214119687E-01   0.1915807338E+00   0.2685973488E-04  -0.2830161248E-04   0.2685973488E-04  -0.2830161248E-04   0.6039467744E-01  -0.1875511764E-02   0.0000000000E+00   0.6970464918E-02
   0.1302546597E+00   0.1736385901E+00   0.4095036554E-04  -0.1892797160E-04   0.4095036554E-04  -0.1892797160E-04   0.6048173419E-01  -0.5415806920E-02   0.0000000000E+00   0.2751524664E-02
   0.1822530984E+00   0.1088798899E+00   0.6647720318E-04  -0.5016027607E-05   0.6647720318E-04  -0.5016027607E-05   0.4373140192E-01  -0.4984280091E-02   0.0000000000E+00  -0.8565690452E-02
   0.2057671198E+00   0.1120460898E+00   0.7115792360E-04  -0.3935616457E-05   0.7115792360E-04  -0.3935616457E-05   0.4264601070E-01  -0.2113930888E-02   0.0000000000E+00  -0.7476745591E-02
   0.1889586648E+00   0.1288788617E+00   0.6471087864E-04  -0.6385159786E-05   0.6471087864E-04  -0.6385159786E-05   0.4807445300E-01  -0.4426211442E-02   0.0000000000E+00  -0.6380092030E-02
   0.1940101469E+00   0.1104630914E+00   0.6883247181E-04  -0.4425282204E-05   0.6883247181E-04  -0.4425282204E-05   0.4306640670E-01  -0.3563514927E-02   0.0000000000E+00  -0.8036311593E-02
   0.1973630834E+00   0.1204626741E+00   0.6802618331E-04  -0.5060972050E-05   0.6802618331E-04  -0.5060972050E-05   0.4538863739E-01  -0.3272352101E-02   0.0000000000E+00  -0.6974106718E-02
   0.1856057469E+00   0.1188793808E+00   0.6552646877E-04  -0.5698118948E-05   0.6552646877E-04  -0.5698118948E-05   0.4595050193E-01  -0.4660857935E-02   0.0000000000E+00  -0.7414440156E-02
   0.2649307510E+00   0.1643034457E+00   0.7931702087E-04  -0.5248146686E-05   0.7931702087E-04  -0.5248146686E-05   0.4992317525E-01   0.7935323402E-03   0.0000000000E+00  -0.3254512829E-02
   0.2695463943E+00   0.1736686013E+00   0.7981314069E-04  -0.5777334917E-05   0.7981314069E-04  -0.5777334917E-05   0.5131939615E-01   0.7578933301E-03   0.0000000000E+00  -0.2847609697E-02
   0.2640001540E+00   0.1827313855E+00   0.7774252093E-04  -0.6648263355E-05   0.7774252093E-04  -0.6648263355E-05   0.5294295685E-01   0.3764852464E-03   0.0000000000E+00  -0.2648946036E-02
   0.2593844796E+00   0.1733662614E+00   0.7723081350E-04  -0.6103285688E-05   0.7723081350E-04  -0.6103285688E-05   0.5159504870E-01   0.4152477563E-03   0.0000000000E+00  -0.3029801430E-02
   0.2586621529E+00   0.1909488829E+00   0.7572195398E-04  -0.7505574930E-05   0.7572195398E-04  -0.7505574930E-05   0.5443071860E-01   0.2009086234E-03   0.0000000000E+00  -0.2439911587E-02
   0.2896722633E+00   0.1761205354E+00   0.8479163566E-04  -0.5423817704E-05   0.8479163566E-04  -0.5423817704E-05   0.5119519454E-01   0.1176266588E-02   0.0000000000E+00  -0.2251703174E-02
   0.2787306021E+00   0.1761416831E+00   0.8200155292E-04  -0.5690458442E-05   0.8200155292E-04  -0.5690458442E-05   0.5145544854E-01   0.9236956493E-03   0.0000000000E+00  -0.2539169463E-02
   0.8865884281E-01   0.1845535687E+00   0.2655555722E-04  -0.2829464830E-04   0.2655555722E-04  -0.2829464830E-04   0.6156508365E-01  -0.1934093070E-02   0.0000000000E+00   0.7305194954E-02
   0.8414182183E-01   0.1923222678E+00   0.2434906428E-04  -0.2997411712E-04   0.2434906428E-04  -0.2997411712E-04   0.6031748674E-01  -0.1216328736E-02   0.0000000000E+00   0.7440843294E-02
   0.8787433912E-01   0.1609914748E+00   0.2917330978E-04  -0.2589809094E-04   0.2917330978E-04  -0.2589809094E-04   0.6500690504E-01  -0.3522249209E-02   0.0000000000E+00   0.6005576845E-02
   0.8068483381E-01   0.1544891225E+00   0.2769780257E-04  -0.2673624591E-04   0.2769780257E-04  -0.2673624591E-04   0.6701757676E-01  -0.2736765428E-02   0.0000000000E+00   0.5992465887E-02
   0.1938045963E+00   0.9047213433E-01   0.7202715366E-04  -0.2926887444E-05   0.7202715366E-04  -0.2926887444E-05   0.3738129095E-01  -0.2457839082E-02   0.0000000000E+00  -0.9313901963E-02
   0.2043446496E+00   0.9005286533E-01   0.7407579373E-04  -0.2499734224E-05   0.7407579373E-04  -0.2499734224E-05   0.3688598293E-01  -0.1185618230E-02   0.0000000000E+00  -0.8613483573E-02
   0.1989691501E+00   0.8102078979E-01   0.7444356096E-04  -0.2144555839E-05   0.7444356096E-04  -0.2144555839E-05   0.3454162391E-01  -0.1069073211E-02   0.0000000000E+00  -0.9027111244E-02
   0.2095088541E+00   0.8060131684E-01   0.7631753414E-04  -0.1819378708E-05   0.7631753414E-04  -0.1819378708E-05   0.3412668182E-01   0.2319213179E-03   0.0000000000E+00  -0.8281328960E-02
   0.2239276958E+00   0.1823872902E+00   0.6700540838E-04  -0.8651414198E-05   0.6700540838E-04  -0.8651414198E-05   0.5453925353E-01  -0.1024163095E-02   0.0000000000E+00  -0.2683470468E-02
   0.1405330891E+00   0.1735532434E+00   0.4412206523E-04  -0.1715881167E-04   0.4412206523E-04  -0.1715881167E-04   0.5932395438E-01  -0.5343210483E-02   0.0000000000E+00   0.1604699414E-02
   0.1350527237E+00   0.1648774145E+00   0.4371885487E-04  -0.1704723103E-04   0.4371885487E-04  -0.1704723103E-04   0.5972876563E-01  -0.6287905498E-02   0.0000000000E+00   0.1465865457E-02
   0.1350949818E+00   0.1461493541E+00   0.4682488949E-04  -0.1469145219E-04   0.4682488949E-04  -0.1469145219E-04   0.5875363498E-01  -0.8369362460E-02   0.0000000000E+00  -0.1167026908E-02
   0.1402129127E+00   0.1554705952E+00   0.4678436863E-04  -0.1504239193E-04   0.4678436863E-04  -0.1504239193E-04   0.5881934133E-01  -0.7156520622E-02   0.0000000000E+00  -0.3370200329E-03
   0.1299344753E+00   0.1555560191E+00   0.4360866063E-04  -0.1677347394E-04   0.4360866063E-04  -0.1677347394E-04   0.5994263485E-01  -0.7391197760E-02   0.0000000000E+00   0.6750336252E-03
   0.5888268914E-01   0.1807457772E+00   0.1769422085E-04  -0.3378991141E-04   0.1769422085E-04  -0.3378991141E-04   0.6241620900E-01   0.1989439374E-02   0.0000000000E+00   0.7738254199E-02
   0.1851218847E+00   0.1648267828E+00   0.5840784983E-04  -0.1027311210E-04   0.5840784983E-04  -0.1027311210E-04   0.5464886220E-01  -0.3799264437E-02   0.0000000000E+00  -0.2624596936E-02
   0.1800898891E+00   0.1735013514E+00   0.5581904572E-04  -0.1169279462E-04   0.5581904572E-04  -0.1169279462E-04   0.5603357023E-01  -0.3628539918E-02   0.0000000000E+00  -0.1649522629E-02
   0.1702139575E+00   0.1734226780E+00   0.5298325910E-04  -0.1285300454E-04   0.5298325910E-04  -0.1285300454E-04   0.5700237779E-01  -0.4149804935E-02   0.0000000000E+00  -0.9985883152E-03
   0.1752460878E+00   0.1647482977E+00   0.5563991894E-04  -0.1133164327E-04   0.5563991894E-04  -0.1133164327E-04   0.5548279115E-01  -0.4507769954E-02   0.0000000000E+00  -0.2053432239E-02
   0.1959683549E+00   0.1477932688E+00   0.6368493804E-04  -0.7619081423E-05   0.6368493804E-04  -0.7619081423E-05   0.5105549941E-01  -0.3498688471E-02   0.0000000000E+00  -0.4557670723E-02
   0.1762631026E+00   0.1463192712E+00   0.5866278887E-04  -0.9267876650E-05   0.5866278887E-04  -0.9267876650E-05   0.5287251132E-01  -0.5385424523E-02   0.0000000000E+00  -0.4120156132E-02
   0.1905451552E+00   0.1563101141E+00   0.6106408229E-04  -0.8901944251E-05   0.6106408229E-04  -0.8901944251E-05   0.5290046131E-01  -0.3707175447E-02   0.0000000000E+00  -0.3609859471E-02
   0.1806923922E+00   0.1555729988E+00   0.5848107909E-04  -0.9781120616E-05   0.5848107909E-04  -0.9781120616E-05   0.5384302228E-01  -0.4493194835E-02   0.0000000000E+00  -0.3314205974E-02
   0.1861157716E+00   0.1470563703E+00   0.6119930555E-04  -0.8389856730E-05   0.6119930555E-04  -0.8389856730E-05   0.5181431994E-01  -0.4494219173E-02   0.0000000000E+00  -0.4369369799E-02
   0.7352160455E-01   0.1459592939E+00   0.2656402448E-04  -0.2740003896E-04   0.2656402448E-04  -0.2740003896E-04   0.6917375220E-01  -0.1558063332E-02   0.0000000000E+00   0.5090802142E-02
   0.9344774708E-01   0.1194006040E+00   0.3938858904E-04  -0.1923798688E-04   0.3938858904E-04  -0.1923798688E-04   0.6489789628E-01  -0.8769917174E-02   0.0000000000E+00  -0.2967466806E-02
   0.8409312348E-01   0.1150033171E+00   0.3750614109E-04  -0.2095893054E-04   0.3750614109E-04  -0.2095893054E-04   0.6690002109E-01  -0.6275024695E-02   0.0000000000E+00  -0.4513839407E-02
   0.9421952715E-01   0.1078350155E+00   0.4316442450E-04  -0.1745373448E-04   0.4316442450E-04  -0.1745373448E-04   0.6016326369E-01  -0.9054631513E-02   0.0000000000E+00  -0.6633290400E-02
   0.2465020186E+00   0.5430965413E-01   0.8462681442E-04  -0.4362838819E-06   0.8462681442E-04  -0.4362838819E-06   0.2983304084E-01   0.5201515186E-02   0.0000000000E+00  -0.4815420374E-02
   0.2685282931E+00   0.5506930671E-01   0.8774302547E-04  -0.3418944718E-06   0.8774302547E-04  -0.3418944718E-06   0.3105062693E-01   0.6244527958E-02   0.0000000000E+00  -0.3607951318E-02
   0.1777273702E+00   0.6219400923E-01   0.7410259494E-04  -0.1783986428E-05   0.7410259494E-04  -0.1783986428E-05   0.2752769592E-01  -0.2500569103E-02   0.0000000000E+00  -0.1055547795E-01
   0.2303033452E+00   0.6300066184E-01   0.8159759655E-04  -0.7722781315E-06   0.8159759655E-04  -0.7722781315E-06   0.3063277377E-01   0.3510092792E-02   0.0000000000E+00  -0.6249028344E-02
   0.2046672070E+00   0.1652175457E+00   0.6370800254E-04  -0.8539651060E-05   0.6370800254E-04  -0.8539651060E-05   0.5314374338E-01  -0.2421420954E-02   0.0000000000E+00  -0.3326720457E-02
   0.1996273124E+00   0.1737097448E+00   0.6128970122E-04  -0.9755603297E-05   0.6128970122E-04  -0.9755603297E-05   0.5465889354E-01  -0.2462345379E-02   0.0000000000E+00  -0.2569260115E-02
   0.1898545518E+00   0.1735142963E+00   0.5858590688E-04  -0.1065932763E-04   0.5858590688E-04  -0.1065932763E-04   0.5544836197E-01  -0.3010111367E-02   0.0000000000E+00  -0.2180562968E-02
   0.1948945829E+00   0.1650222648E+00   0.6108046976E-04  -0.9352587764E-05   0.6108046976E-04  -0.9352587764E-05   0.5380979179E-01  -0.3136368577E-02   0.0000000000E+00  -0.3005254454E-02
   0.2413991250E+00   0.6423304685E-01   0.8314150811E-04  -0.6943768980E-06   0.8314150811E-04  -0.6943768980E-06   0.3119576702E-01   0.4228901888E-02   0.0000000000E+00  -0.5570222895E-02
   0.2520588667E+00   0.6427487581E-01   0.8474434887E-04  -0.6079973141E-06   0.8474434887E-04  -0.6079973141E-06   0.3179260243E-01   0.4895378656E-02   0.0000000000E+00  -0.4878830425E-02
   0.2735192603E+00   0.9135539972E-01   0.8641816025E-04  -0.1183937695E-05   0.8641816025E-04  -0.1183937695E-05   0.3686616889E-01   0.4416006681E-02   0.0000000000E+00  -0.4175654684E-02
   0.2734466076E+00   0.1011017846E+00   0.8576527702E-04  -0.1535692850E-05   0.8576527702E-04  -0.1535692850E-05   0.3855323726E-01   0.3820884702E-02   0.0000000000E+00  -0.4205480863E-02
   0.5950923989E-01   0.1710995726E+00   0.1871949478E-04  -0.3285720618E-04   0.1871949478E-04  -0.3285720618E-04   0.6473738411E-01   0.2272060511E-02   0.0000000000E+00   0.7647525201E-02
   0.2737134580E+00   0.1587481368E+00   0.8186097636E-04  -0.4611106848E-05   0.8186097636E-04  -0.4611106848E-05   0.4873924511E-01   0.1278038385E-02   0.0000000000E+00  -0.3145994546E-02
   0.2653134286E+00   0.1542796341E+00   0.8015932226E-04  -0.4544972810E-05   0.8015932226E-04  -0.4544972810E-05   0.4818792482E-01   0.1061883404E-02   0.0000000000E+00  -0.3554166480E-02
   0.2909704263E+00   0.1485959609E+00   0.8653667179E-04  -0.3605029739E-05   0.8653667179E-04  -0.3605029739E-05   0.4663347065E-01   0.2190887752E-02   0.0000000000E+00  -0.2749432395E-02
   0.2733417112E+00   0.8173330953E-01   0.8699108584E-04  -0.8899328692E-06   0.8699108584E-04  -0.8899328692E-06   0.3519916941E-01   0.4924631341E-02   0.0000000000E+00  -0.4094034760E-02
   0.2735177185E+00   0.1107465557E+00   0.8512576773E-04  -0.1933158839E-05   0.8512576773E-04  -0.1933158839E-05   0.4030373947E-01   0.3320296353E-02   0.0000000000E+00  -0.4147796301E-02
   0.2649668855E+00   0.1254146810E+00   0.8230422679E-04  -0.2802978875E-05   0.8230422679E-04  -0.2802978875E-05   0.4307397106E-01   0.2152004675E-02   0.0000000000E+00  -0.4366788786E-02
   0.2736306260E+00   0.1204767911E+00   0.8447797674E-04  -0.2383444488E-05   0.8447797674E-04  -0.2383444488E-05   0.4203259133E-01   0.2812075307E-02   0.0000000000E+00  -0.4017730931E-02
   0.2823672532E+00   0.1250615979E+00   0.8599159557E-04  -0.2468038269E-05   0.8599159557E-04  -0.2468038269E-05   0.4269251250E-01   0.2943345602E-02   0.0000000000E+00  -0.3533026320E-02
   0.2737035127E+00   0.1299995263E+00   0.8383236447E-04  -0.2871836066E-05   0.8383236447E-04  -0.2871836066E-05   0.4375286736E-01   0.2361640693E-02   0.0000000000E+00  -0.3860641873E-02
   0.2467537186E+00   0.1161072863E+00   0.7930231070E-04  -0.2726350365E-05   0.7930231070E-04  -0.2726350365E-05   0.4174105833E-01   0.1476987390E-02   0.0000000000E+00  -0.5448500861E-02
   0.2264286166E+00   0.1285773345E+00   0.7357629226E-04  -0.4195748414E-05   0.7357629226E-04  -0.4195748414E-05   0.4509504001E-01  -0.6214287782E-03   0.0000000000E+00  -0.5767356410E-02
   0.2474729911E+00   0.1260438973E+00   0.7850152895E-04  -0.3279859685E-05   0.7850152895E-04  -0.3279859685E-05   0.4361793962E-01   0.1077774373E-02   0.0000000000E+00  -0.5102081999E-02
   0.2373104139E+00   0.1322789200E+00   0.7562545487E-04  -0.4015495876E-05   0.7562545487E-04  -0.4015495876E-05   0.4531174583E-01   0.1022303113E-03   0.0000000000E+00  -0.5237896841E-02
   0.2365913352E+00   0.1223424441E+00   0.7652308308E-04  -0.3393959596E-05   0.7652308308E-04  -0.3393959596E-05   0.4335974798E-01   0.4397640620E-03   0.0000000000E+00  -0.5638113143E-02
   0.2741147996E+00   0.1667765506E+00   0.8142582453E-04  -0.5149211728E-05   0.8142582453E-04  -0.5149211728E-05   0.5006195259E-01   0.1016740741E-02   0.0000000000E+00  -0.2930336110E-02
   0.1004027246E+00   0.1751719900E+00   0.3135781002E-04  -0.2487549873E-04   0.3135781002E-04  -0.2487549873E-04   0.6230229767E-01  -0.3859561813E-02   0.0000000000E+00   0.5962598605E-02
   0.1260377976E+00   0.1249042718E+00   0.4837980922E-04  -0.1335307624E-04   0.4837980922E-04  -0.1335307624E-04   0.5751042849E-01  -0.1070159806E-01   0.0000000000E+00  -0.4474546693E-02
   0.1077136536E+00   0.1274247684E+00   0.4204328197E-04  -0.1719278586E-04   0.4204328197E-04  -0.1719278586E-04   0.6218709916E-01  -0.9882370726E-02   0.0000000000E+00  -0.2100141303E-02
   0.1190486293E+00   0.1352221304E+00   0.4394916901E-04  -0.1604429681E-04   0.4394916901E-04  -0.1604429681E-04   0.6039031699E-01  -0.9512703063E-02   0.0000000000E+00  -0.1655751391E-02
   0.1098864798E+00   0.1364822666E+00   0.4074241113E-04  -0.1801668400E-04   0.4074241113E-04  -0.1801668400E-04   0.6266051693E-01  -0.8904271579E-02   0.0000000000E+00  -0.2780421451E-03
   0.1168758297E+00   0.1261646952E+00   0.4526336594E-04  -0.1518890173E-04   0.4526336594E-04  -0.1518890173E-04   0.5957733116E-01  -0.1044459713E-01   0.0000000000E+00  -0.3296670875E-02
   0.2487485838E+00   0.1742204226E+00   0.7440790556E-04  -0.6603698480E-05   0.7440790556E-04  -0.6603698480E-05   0.5216609025E-01   0.3489222005E-04   0.0000000000E+00  -0.3157692547E-02
   0.2191355608E+00   0.1739691388E+00   0.6658988608E-04  -0.8245599768E-05   0.6658988608E-04  -0.8245599768E-05   0.5350473855E-01  -0.1359019457E-02   0.0000000000E+00  -0.3059965706E-02
   0.1536715357E+00   0.3409170797E-01   0.7616885203E-04  -0.1230863454E-05   0.7616885203E-04  -0.1230863454E-05   0.1386362350E-01  -0.5012221843E-02   0.0000000000E+00  -0.9159526652E-02
   0.2542950511E+00   0.1651577370E+00   0.7659203116E-04  -0.5683981931E-05   0.7659203116E-04  -0.5683981931E-05   0.5043006364E-01   0.3282291144E-03   0.0000000000E+00  -0.3420289646E-02
   0.1109357959E+00   0.1108428901E+00   0.4742093984E-04  -0.1416395509E-04   0.4742093984E-04  -0.1416395509E-04   0.5738310647E-01  -0.1169299370E-01   0.0000000000E+00  -0.6764335544E-02
   0.1196878265E+00   0.1069764061E+00   0.5110424002E-04  -0.1195745399E-04   0.5110424002E-04  -0.1195745399E-04   0.5346152610E-01  -0.1188459121E-01   0.0000000000E+00  -0.8122939567E-02
   0.1126944021E+00   0.1023540349E+00   0.5049504982E-04  -0.1261355658E-04   0.5049504982E-04  -0.1261355658E-04   0.5309172776E-01  -0.1198017563E-01   0.0000000000E+00  -0.9103866644E-02
   0.9459089800E-01   0.1683683100E+00   0.3037385093E-04  -0.2530949536E-04   0.3037385093E-04  -0.2530949536E-04   0.6362771764E-01  -0.3818403023E-02   0.0000000000E+00   0.6181434790E-02
   0.9084643837E-01   0.1770083752E+00   0.2809818732E-04  -0.2705338421E-04   0.2809818732E-04  -0.2705338421E-04   0.6267526807E-01  -0.2816725889E-02   0.0000000000E+00   0.6859790046E-02
   0.9605560958E-01   0.1358474596E+00   0.3627569185E-04  -0.2090871286E-04   0.3627569185E-04  -0.2090871286E-04   0.6570288384E-01  -0.7488925557E-02   0.0000000000E+00   0.1236273124E-02
   0.8622241180E-01   0.1352833575E+00   0.3302174978E-04  -0.2310824580E-04   0.3302174978E-04  -0.2310824580E-04   0.6770789078E-01  -0.5565709888E-02   0.0000000000E+00   0.1975263640E-02
   0.8491821584E-01   0.1270597675E+00   0.3444402172E-04  -0.2234674782E-04   0.3444402172E-04  -0.2234674782E-04   0.6841328639E-01  -0.5925511337E-02   0.0000000000E+00  -0.1423869884E-03
   0.9475140017E-01   0.1276240213E+00   0.3769118451E-04  -0.2007887153E-04   0.3769118451E-04  -0.2007887153E-04   0.6540937255E-01  -0.8066526683E-02   0.0000000000E+00  -0.7446453505E-03
   0.2093978222E+00   0.1737656528E+00   0.6397061790E-04  -0.8944087283E-05   0.6397061790E-04  -0.8944087283E-05   0.5413421357E-01  -0.1859518405E-02   0.0000000000E+00  -0.2887851059E-02
   0.2289730098E+00   0.1049073172E+00   0.7688691731E-04  -0.2589902766E-05   0.7688691731E-04  -0.2589902766E-05   0.3988696224E-01   0.6254239586E-03   0.0000000000E+00  -0.6674841920E-02
   0.2378632677E+00   0.1105073099E+00   0.7804985599E-04  -0.2652027832E-05   0.7804985599E-04  -0.2652027832E-05   0.4088951139E-01   0.1110347197E-02   0.0000000000E+00  -0.6027457543E-02
   0.2277008482E+00   0.1167424144E+00   0.7524508226E-04  -0.3346789389E-05   0.7524508226E-04  -0.3346789389E-05   0.4248939577E-01  -0.7905397034E-04   0.0000000000E+00  -0.6270010860E-02
   0.8355169391E-01   0.1432488696E+00   0.3052700538E-04  -0.2474422202E-04   0.3052700538E-04  -0.2474422202E-04   0.6808679453E-01  -0.4462693085E-02   0.0000000000E+00   0.3765103100E-02
   0.1558941318E+00   0.1460794801E+00   0.5300389490E-04  -0.1161596532E-04   0.5300389490E-04  -0.1161596532E-04   0.5551600676E-01  -0.7179816882E-02   0.0000000000E+00  -0.3000974404E-02
   0.1506125764E+00   0.1554357348E+00   0.4991069229E-04  -0.1345859177E-04   0.4991069229E-04  -0.1345859177E-04   0.5716573679E-01  -0.6724792737E-02   0.0000000000E+00  -0.1344088483E-02
   0.1454946496E+00   0.1461145897E+00   0.4996077653E-04  -0.1306714825E-04   0.4996077653E-04  -0.1306714825E-04   0.5688917059E-01  -0.7847729739E-02   0.0000000000E+00  -0.2133098661E-02
   0.1708166501E+00   0.1554945099E+00   0.5574056910E-04  -0.1084853795E-04   0.5574056910E-04  -0.1084853795E-04   0.5475497206E-01  -0.5328453622E-02   0.0000000000E+00  -0.2792981807E-02
   0.1606320386E+00   0.1553745038E+00   0.5285179807E-04  -0.1208158677E-04   0.5285179807E-04  -0.1208158677E-04   0.5611827387E-01  -0.6045759808E-02   0.0000000000E+00  -0.2128911515E-02
   0.1660787041E+00   0.1461995293E+00   0.5587302630E-04  -0.1036882843E-04   0.5587302630E-04  -0.1036882843E-04   0.5401188344E-01  -0.6358402796E-02   0.0000000000E+00  -0.3608362837E-02
   0.2063990231E+00   0.1331271181E+00   0.6832906689E-04  -0.5575457928E-05   0.6832906689E-04  -0.5575457928E-05   0.4735135784E-01  -0.2559680813E-02   0.0000000000E+00  -0.5879442847E-02
   0.2060830275E+00   0.1225866487E+00   0.6972175801E-04  -0.4733126446E-05   0.6972175801E-04  -0.4733126446E-05   0.4503514622E-01  -0.2392416214E-02   0.0000000000E+00  -0.6688225876E-02
   0.2160977121E+00   0.1203117221E+00   0.7228554202E-04  -0.4060457173E-05   0.7228554202E-04  -0.4060457173E-05   0.4398090529E-01  -0.1282316023E-02   0.0000000000E+00  -0.6531619169E-02
   0.2164139057E+00   0.1308523307E+00   0.7099935842E-04  -0.4833651065E-05   0.7099935842E-04  -0.4833651065E-05   0.4612937634E-01  -0.1584347298E-02   0.0000000000E+00  -0.5838148751E-02
   0.2144048582E+00   0.1654210590E+00   0.6628408152E-04  -0.7827979348E-05   0.6628408152E-04  -0.7827979348E-05   0.5248000821E-01  -0.1821330220E-02   0.0000000000E+00  -0.3494106147E-02
   0.2358598249E+00   0.7296574447E-01   0.8151597368E-04  -0.1011616264E-05   0.8151597368E-04  -0.1011616264E-05   0.3286371741E-01   0.3234410127E-02   0.0000000000E+00  -0.6308666891E-02
   0.2616503948E+00   0.6195611511E-01   0.8634289094E-04  -0.4954451599E-06   0.8634289094E-04  -0.4954451599E-06   0.3167440138E-01   0.5543749199E-02   0.0000000000E+00  -0.4236284738E-02
   0.1884979035E+00   0.8095872554E-01   0.7262226123E-04  -0.2510077941E-05   0.7262226123E-04  -0.2510077941E-05   0.3437085608E-01  -0.2456884219E-02   0.0000000000E+00  -0.9889851822E-02
   0.2397578040E+00   0.8072729597E-01   0.8141898411E-04  -0.1228414064E-05   0.8141898411E-04  -0.1228414064E-05   0.3453853188E-01   0.3007974984E-02   0.0000000000E+00  -0.6129871632E-02
   0.2151260694E+00   0.1483472188E+00   0.6850168241E-04  -0.6315612737E-05   0.6850168241E-04  -0.6315612737E-05   0.4960765053E-01  -0.1863226178E-02   0.0000000000E+00  -0.4683996281E-02
   0.2248662517E+00   0.1488904910E+00   0.7086032981E-04  -0.5798492297E-05   0.7086032981E-04  -0.5798492297E-05   0.4905171778E-01  -0.1184873016E-02   0.0000000000E+00  -0.4590211210E-02
   0.2293744459E+00   0.1575290871E+00   0.7103745473E-04  -0.6242953237E-05   0.7103745473E-04  -0.6242953237E-05   0.5029901742E-01  -0.8506470247E-03   0.0000000000E+00  -0.4045331089E-02
   0.2196341609E+00   0.1569858146E+00   0.6861992812E-04  -0.6760202168E-05   0.6861992812E-04  -0.6760202168E-05   0.5082052685E-01  -0.1462405619E-02   0.0000000000E+00  -0.4110573497E-02
   0.1021918959E+00   0.1151218984E+00   0.4346694194E-04  -0.1662381805E-04   0.4346694194E-04  -0.1662381805E-04   0.6110741602E-01  -0.1037303934E-01   0.0000000000E+00  -0.4870866936E-02
   0.1029637557E+00   0.1035563637E+00   0.4727884721E-04  -0.1481615980E-04   0.4727884721E-04  -0.1481615980E-04   0.5656952697E-01  -0.1101013145E-01   0.0000000000E+00  -0.8464223514E-02
   0.1040576779E+00   0.1406937345E+00   0.3796843167E-04  -0.1981324224E-04   0.3796843167E-04  -0.1981324224E-04   0.6394332754E-01  -0.8055984265E-02   0.0000000000E+00   0.1124436057E-02
   0.9338491032E-01   0.1438129452E+00   0.3379021006E-04  -0.2256490835E-04   0.3379021006E-04  -0.2256490835E-04   0.6591238261E-01  -0.6098126314E-02   0.0000000000E+00   0.2981395800E-02
   0.2581737988E+00   0.1581503137E+00   0.7812940029E-04  -0.5037137400E-05   0.7812940029E-04  -0.5037137400E-05   0.4913435659E-01   0.6747984273E-03   0.0000000000E+00  -0.3613822533E-02
   0.2475381648E+00   0.1590045535E+00   0.7543740917E-04  -0.5498727703E-05   0.7543740917E-04  -0.5498727703E-05   0.4966706943E-01   0.1465250943E-03   0.0000000000E+00  -0.3783811008E-02
   0.2569441884E+00   0.1401181023E+00   0.7933818825E-04  -0.3869349884E-05   0.7933818825E-04  -0.3869349884E-05   0.4601173658E-01   0.1112532129E-02   0.0000000000E+00  -0.4276924446E-02
   0.2585566155E+00   0.1481264907E+00   0.7904123877E-04  -0.4339639506E-05   0.7904123877E-04  -0.4339639506E-05   0.4737006251E-01   0.9690156892E-03   0.0000000000E+00  -0.3930619170E-02
   0.1235774858E+00   0.1458448135E+00   0.4330437781E-04  -0.1664623604E-04   0.4330437781E-04  -0.1664623604E-04   0.6050768353E-01  -0.8424726323E-02   0.0000000000E+00   0.2707374252E-04
   0.1184168661E+00   0.1552512423E+00   0.4002703889E-04  -0.1884634136E-04   0.4002703889E-04  -0.1884634136E-04   0.6190461018E-01  -0.7297650407E-02   0.0000000000E+00   0.2030269740E-02
   0.1465594726E+00   0.1281252205E+00   0.5367928674E-04  -0.1065425462E-04   0.5367928674E-04  -0.1065425462E-04   0.5393601119E-01  -0.9135299598E-02   0.0000000000E+00  -0.5329558352E-02
   0.1512266485E+00   0.1371023321E+00   0.5326123042E-04  -0.1114796064E-04   0.5326123042E-04  -0.1114796064E-04   0.5489887821E-01  -0.8054783786E-02   0.0000000000E+00  -0.4093681283E-02
   0.1408271742E+00   0.1371373796E+00   0.5022959953E-04  -0.1262319841E-04   0.5022959953E-04  -0.1262319841E-04   0.5652211918E-01  -0.8840383632E-02   0.0000000000E+00  -0.3294760120E-02
   0.1093245231E+00   0.1191338247E+00   0.4463304802E-04  -0.1567864019E-04   0.4463304802E-04  -0.1567864019E-04   0.5977261729E-01  -0.1058893496E-01   0.0000000000E+00  -0.4498028319E-02
   0.1184865861E+00   0.1178736802E+00   0.4779704565E-04  -0.1371092083E-04   0.4779704565E-04  -0.1371092083E-04   0.5758043124E-01  -0.1119028434E-01   0.0000000000E+00  -0.5574274381E-02
   0.2391327419E+00   0.1577227654E+00   0.7346743315E-04  -0.5769791387E-05   0.7346743315E-04  -0.5769791387E-05   0.4984624933E-01  -0.2499384578E-03   0.0000000000E+00  -0.3981431734E-02
   0.2098966821E+00   0.1567824568E+00   0.6613054089E-04  -0.7386585450E-05   0.6613054089E-04  -0.7386585450E-05   0.5140287019E-01  -0.2189613037E-02   0.0000000000E+00  -0.4014551273E-02
   0.1670325815E+00   0.1253599741E+00   0.5976723618E-04  -0.7938930016E-05   0.5976723618E-04  -0.7938930016E-05   0.4998913819E-01  -0.7067075896E-02   0.0000000000E+00  -0.6602383416E-02
   0.1614633492E+00   0.1357198605E+00   0.5638559700E-04  -0.9710747948E-05   0.5638559700E-04  -0.9710747948E-05   0.5288180335E-01  -0.7208622916E-02   0.0000000000E+00  -0.4844933837E-02
   0.1567961543E+00   0.1267427897E+00   0.5678663845E-04  -0.9204159736E-05   0.5678663845E-04  -0.9204159736E-05   0.5170765191E-01  -0.8155768801E-02   0.0000000000E+00  -0.6004244351E-02
   0.2003176972E+00   0.1565053915E+00   0.6365110584E-04  -0.8083733767E-05   0.6365110584E-04  -0.8083733767E-05   0.5216015441E-01  -0.2896674188E-02   0.0000000000E+00  -0.3903541649E-02
   0.2207774374E+00   0.1384624018E+00   0.7108622036E-04  -0.5196590235E-05   0.7108622036E-04  -0.5196590235E-05   0.4737106935E-01  -0.1288487774E-02   0.0000000000E+00  -0.5250677133E-02
   0.2107624612E+00   0.1407371734E+00   0.6837660572E-04  -0.5946824724E-05   0.6837660572E-04  -0.5946824724E-05   0.4853976937E-01  -0.2176890135E-02   0.0000000000E+00  -0.5260168005E-02
   0.1976788411E+00   0.1310030328E+00   0.6652204061E-04  -0.5955091978E-05   0.6652204061E-04  -0.5955091978E-05   0.4762519961E-01  -0.3509186244E-02   0.0000000000E+00  -0.6131669052E-02
   0.2011837545E+00   0.1404602876E+00   0.6603623694E-04  -0.6554213640E-05   0.6603623694E-04  -0.6554213640E-05   0.4925458224E-01  -0.3064733302E-02   0.0000000000E+00  -0.5213438255E-02
   0.1924633959E+00   0.1383360569E+00   0.6414093050E-04  -0.7006529756E-05   0.6414093050E-04  -0.7006529756E-05   0.4962927547E-01  -0.3905844111E-02   0.0000000000E+00  -0.5417730292E-02
   0.1826109633E+00   0.1375992133E+00   0.6172263435E-04  -0.7756839308E-05   0.6172263435E-04  -0.7756839308E-05   0.5055884166E-01  -0.4943613961E-02   0.0000000000E+00  -0.5279188517E-02
   0.1716476600E+00   0.1358396042E+00   0.5912401719E-04  -0.8616399969E-05   0.5912401719E-04  -0.8616399969E-05   0.5156154638E-01  -0.6119820725E-02   0.0000000000E+00  -0.5261807333E-02
   0.1779956641E+00   0.1271195381E+00   0.6226303757E-04  -0.7101967582E-05   0.6226303757E-04  -0.7101967582E-05   0.4883949918E-01  -0.5783355241E-02   0.0000000000E+00  -0.6523379379E-02
   0.2055472550E+00   0.1480703318E+00   0.6611497983E-04  -0.6923617438E-05   0.6611497983E-04  -0.6923617438E-05   0.5021604731E-01  -0.2708054949E-02   0.0000000000E+00  -0.4644834878E-02
   0.2648541511E+00   0.1156845479E+00   0.8303807314E-04  -0.2305054356E-05   0.8303807314E-04  -0.2305054356E-05   0.4125756331E-01   0.2598814121E-02   0.0000000000E+00  -0.4543562870E-02
   0.2653314930E+00   0.1348352414E+00   0.8165151503E-04  -0.3323819234E-05   0.8165151503E-04  -0.3323819234E-05   0.4475328646E-01   0.1746855741E-02   0.0000000000E+00  -0.4114296883E-02
   0.2472172350E+00   0.8500633374E-01   0.8229750076E-04  -0.1277830931E-05   0.8229750076E-04  -0.1277830931E-05   0.3547466517E-01   0.3253643037E-02   0.0000000000E+00  -0.5710118905E-02
   0.2558602195E+00   0.1207610005E+00   0.8076924508E-04  -0.2756236010E-05   0.8076924508E-04  -0.2756236010E-05   0.4245830789E-01   0.1850655749E-02   0.0000000000E+00  -0.4879263902E-02
   0.2565796950E+00   0.1306976194E+00   0.8006301203E-04  -0.3302317892E-05   0.8006301203E-04  -0.3302317892E-05   0.4428729663E-01   0.1475378699E-02   0.0000000000E+00  -0.4560311572E-02
   0.1354446603E+00   0.7773057399E-01   0.6356314881E-04  -0.5930504244E-05   0.6356314881E-04  -0.5930504244E-05   0.3565349774E-01  -0.1100582324E-01   0.0000000000E+00  -0.1330645690E-01
   0.1267421430E+00   0.7154209269E-01   0.6381600168E-04  -0.6366007306E-05   0.6381600168E-04  -0.6366007306E-05   0.3187538429E-01  -0.1189660702E-01   0.0000000000E+00  -0.1372565434E-01
   0.1832461611E+00   0.9040366455E-01   0.7000355198E-04  -0.3410673315E-05   0.7000355198E-04  -0.3410673315E-05   0.3781790525E-01  -0.4043300973E-02   0.0000000000E+00  -0.9993085594E-02
   0.1018846194E+00   0.1316361493E+00   0.3915322373E-04  -0.1903286396E-04   0.3915322373E-04  -0.1903286396E-04   0.6407613271E-01  -0.8760897947E-02   0.0000000000E+00  -0.4297485377E-03
   0.1005806616E+00   0.1234127932E+00   0.4069479698E-04  -0.1816190129E-04   0.4069479698E-04  -0.1816190129E-04   0.6332180785E-01  -0.9407638779E-02   0.0000000000E+00  -0.2671245570E-02
   0.1997856864E+00   0.1012591260E+00   0.7150668926E-04  -0.3424018915E-05   0.7150668926E-04  -0.3424018915E-05   0.4011097630E-01  -0.2243084797E-02   0.0000000000E+00  -0.8351220954E-02
   0.2103260177E+00   0.1008399338E+00   0.7369434610E-04  -0.2962081718E-05   0.7369434610E-04  -0.2962081718E-05   0.3963182062E-01  -0.1028429003E-02   0.0000000000E+00  -0.7751682587E-02
   0.2173702187E+00   0.1084768405E+00   0.7409936822E-04  -0.3192257664E-05   0.7409936822E-04  -0.3192257664E-05   0.4112175191E-01  -0.7358623697E-03   0.0000000000E+00  -0.7100272259E-02
   0.1047230871E+00   0.9506750543E-01   0.5071553330E-04  -0.1326728497E-04   0.5071553330E-04  -0.1326728497E-04   0.5100616908E-01  -0.1122418595E-01   0.0000000000E+00  -0.1074943019E-01
   0.1117339417E+00   0.8535468800E-01   0.5599782537E-04  -0.1053400188E-04   0.5599782537E-04  -0.1053400188E-04   0.4291225636E-01  -0.1233273014E-01   0.0000000000E+00  -0.1225703120E-01
   0.1492540835E+00   0.9407676188E-01   0.6210774859E-04  -0.6238959913E-05   0.6210774859E-04  -0.6238959913E-05   0.4252281715E-01  -0.9497391566E-02   0.0000000000E+00  -0.1134532445E-01
   0.1388470819E+00   0.9859344215E-01   0.5850144369E-04  -0.7943073774E-05   0.5850144369E-04  -0.7943073774E-05   0.4595857231E-01  -0.1080347579E-01   0.0000000000E+00  -0.1043642759E-01
   0.1387582967E+00   0.8863283869E-01   0.6116683750E-04  -0.6764255387E-05   0.6116683750E-04  -0.6764255387E-05   0.4152921806E-01  -0.1079223610E-01   0.0000000000E+00  -0.1220165858E-01
   0.2305173920E+00   0.1390054854E+00   0.7333099413E-04  -0.4766815599E-05   0.7333099413E-04  -0.4766815599E-05   0.4688693918E-01  -0.5197481004E-03   0.0000000000E+00  -0.5087261621E-02
   0.1272384110E+00   0.1140069059E+00   0.5137350147E-04  -0.1164555576E-04   0.5137350147E-04  -0.1164555576E-04   0.5394840873E-01  -0.1120702577E-01   0.0000000000E+00  -0.7085222490E-02
   0.1305661162E+00   0.1355267729E+00   0.4746559726E-04  -0.1403857120E-04   0.4746559726E-04  -0.1403857120E-04   0.5832474948E-01  -0.9409645913E-02   0.0000000000E+00  -0.2674351215E-02
   0.1539056319E+00   0.1132442117E+00   0.5880093687E-04  -0.7939153806E-05   0.5880093687E-04  -0.7939153806E-05   0.4874398551E-01  -0.8886554362E-02   0.0000000000E+00  -0.8224965932E-02
   0.1604689932E+00   0.1193021035E+00   0.5923111674E-04  -0.7933748204E-05   0.5923111674E-04  -0.7933748204E-05   0.4948714687E-01  -0.7915036129E-02   0.0000000000E+00  -0.7357310353E-02
   0.1502325562E+00   0.1206847921E+00   0.5623809581E-04  -0.9258971554E-05   0.5623809581E-04  -0.9258971554E-05   0.5139274458E-01  -0.9036917585E-02   0.0000000000E+00  -0.6835170487E-02
   0.1362987215E+00   0.1265149223E+00   0.5106875060E-04  -0.1191586839E-04   0.5106875060E-04  -0.1191586839E-04   0.5537924746E-01  -0.9994205525E-02   0.0000000000E+00  -0.4989924521E-02
   0.2219286936E+00   0.9727039399E-01   0.7642428819E-04  -0.2364506974E-05   0.7642428819E-04  -0.2364506974E-05   0.3831453154E-01   0.4402594061E-03   0.0000000000E+00  -0.7253847623E-02
   0.2471161470E+00   0.1059608856E+00   0.8034649178E-04  -0.2185710073E-05   0.8034649178E-04  -0.2185710073E-05   0.3967705838E-01   0.1996358519E-02   0.0000000000E+00  -0.5632540363E-02
   0.2382258787E+00   0.1003609185E+00   0.7918532630E-04  -0.2106773430E-05   0.7918532630E-04  -0.2106773430E-05   0.3867156086E-01   0.1639000154E-02   0.0000000000E+00  -0.6205731578E-02
   0.2557476589E+00   0.1110308689E+00   0.8159044754E-04  -0.2254071611E-05   0.8159044754E-04  -0.2254071611E-05   0.4056192510E-01   0.2315828238E-02   0.0000000000E+00  -0.5073960876E-02
   0.1746429949E+00   0.1171201375E+00   0.6320346148E-04  -0.6374744307E-05   0.6320346148E-04  -0.6374744307E-05   0.4691991679E-01  -0.6037729296E-02   0.0000000000E+00  -0.7646400095E-02
   0.1650265422E+00   0.1063794340E+00   0.6298561541E-04  -0.6091008099E-05   0.6298561541E-04  -0.6091008099E-05   0.4497430484E-01  -0.7355910141E-02   0.0000000000E+00  -0.9249246551E-02
   0.1660294618E+00   0.1158697326E+00   0.6132237906E-04  -0.7002709289E-05   0.6132237906E-04  -0.7002709289E-05   0.4751352063E-01  -0.7187106105E-02   0.0000000000E+00  -0.7898872071E-02
   0.1594661648E+00   0.1098119081E+00   0.6093189947E-04  -0.6970958822E-05   0.6093189947E-04  -0.6970958822E-05   0.4678065041E-01  -0.8093092848E-02   0.0000000000E+00  -0.8705215782E-02
   0.1774701930E+00   0.9960744846E-01   0.6712248592E-04  -0.4502321317E-05   0.6712248592E-04  -0.4502321317E-05   0.4122849160E-01  -0.5188213714E-02   0.0000000000E+00  -0.9544495888E-02
   0.1880290300E+00   0.9967618639E-01   0.6933947869E-04  -0.3884452598E-05   0.6933947869E-04  -0.3884452598E-05   0.4062586747E-01  -0.3734165214E-02   0.0000000000E+00  -0.8976295007E-02
   0.2307663038E+00   0.9608185810E-01   0.7823489645E-04  -0.2068650418E-05   0.7823489645E-04  -0.2068650418E-05   0.3789173120E-01   0.1261954964E-02   0.0000000000E+00  -0.6713267037E-02
   0.2400189518E+00   0.9153532261E-01   0.8041538302E-04  -0.1657642570E-05   0.8041538302E-04  -0.1657642570E-05   0.3681135186E-01   0.2371059665E-02   0.0000000000E+00  -0.6218185575E-02
   0.1551948887E+00   0.6209840072E-01   0.7090482739E-04  -0.2800440068E-05   0.7090482739E-04  -0.2800440068E-05   0.2645245271E-01  -0.6470022845E-02   0.0000000000E+00  -0.1242892848E-01
   0.1669165965E+00   0.6249552878E-01   0.7250277283E-04  -0.2220710336E-05   0.7250277283E-04  -0.2220710336E-05   0.2760208614E-01  -0.4398455831E-02   0.0000000000E+00  -0.1149912326E-01
   0.1186388879E+00   0.8001665697E-01   0.5942196236E-04  -0.8594616120E-05   0.5942196236E-04  -0.8594616120E-05   0.3887409422E-01  -0.1233022787E-01   0.0000000000E+00  -0.1354829284E-01
   0.1408392334E+00   0.1126923344E+00   0.5548420108E-04  -0.9458310949E-05   0.5548420108E-04  -0.9458310949E-05   0.5102447296E-01  -0.1045286136E-01   0.0000000000E+00  -0.7998618070E-02
   0.1450467129E+00   0.1033847003E+00   0.5882346236E-04  -0.7772360435E-05   0.5882346236E-04  -0.7772360435E-05   0.4678798462E-01  -0.1000880956E-01   0.0000000000E+00  -0.9778942250E-02
   0.1515796778E+00   0.1036605050E+00   0.6036442071E-04  -0.7080013015E-05   0.6036442071E-04  -0.7080013015E-05   0.4583169204E-01  -0.9101296836E-02   0.0000000000E+00  -0.9708683886E-02
   0.1473724735E+00   0.1129683487E+00   0.5716273276E-04  -0.8661147482E-05   0.5716273276E-04  -0.8661147482E-05   0.4977333430E-01  -0.9702388390E-02   0.0000000000E+00  -0.8153569638E-02
   0.1334386174E+00   0.1187984734E+00   0.5198267953E-04  -0.1132027813E-04   0.5198267953E-04  -0.1132027813E-04   0.5423128081E-01  -0.1062204345E-01   0.0000000000E+00  -0.6295742031E-02
   0.1346392542E+00   0.1079009461E+00   0.5499558828E-04  -0.9693961014E-05   0.5499558828E-04  -0.9693961014E-05   0.5065176355E-01  -0.1110390554E-01   0.0000000000E+00  -0.8776290941E-02
   0.1459397532E+00   0.8317453148E-01   0.6415709519E-04  -0.5391810161E-05   0.6415709519E-04  -0.5391810161E-05   0.3748134666E-01  -0.9421357611E-02   0.0000000000E+00  -0.1250044484E-01
   0.1571401544E+00   0.1002281288E+00   0.6246770496E-04  -0.6147621711E-05   0.6246770496E-04  -0.6147621711E-05   0.4386256971E-01  -0.8329046203E-02   0.0000000000E+00  -0.1015125441E-01
   0.1436991993E+00   0.1204087674E+00   0.5450864383E-04  -0.1006129893E-04   0.5450864383E-04  -0.1006129893E-04   0.5255435542E-01  -0.9649706714E-02   0.0000000000E+00  -0.6549078398E-02
   0.1554119013E+00   0.8306265608E-01   0.6607265448E-04  -0.4552359262E-05   0.6607265448E-04  -0.4552359262E-05   0.3704925408E-01  -0.7957195801E-02   0.0000000000E+00  -0.1198083583E-01
   0.1609710361E+00   0.9220613351E-01   0.6511357403E-04  -0.4992842971E-05   0.6511357403E-04  -0.4992842971E-05   0.4019403192E-01  -0.7536580918E-02   0.0000000000E+00  -0.1103870125E-01
   0.1688571698E+00   0.9835733760E-01   0.6550439533E-04  -0.4982999407E-05   0.6550439533E-04  -0.4982999407E-05   0.4182270466E-01  -0.6510546868E-02   0.0000000000E+00  -0.1000562834E-01
   0.1736398449E+00   0.1076297423E+00   0.6474343019E-04  -0.5515337319E-05   0.6474343019E-04  -0.5515337319E-05   0.4424263976E-01  -0.6208118456E-02   0.0000000000E+00  -0.8909931332E-02
   0.1520974775E+00   0.7216020357E-01   0.6807524428E-04  -0.3812563127E-05   0.6807524428E-04  -0.3812563127E-05   0.3173262103E-01  -0.7929624696E-02   0.0000000000E+00  -0.1300760589E-01
           1           4           6           6
           4           2           5           5
           5           3           6           6
           4           5           6           6
           7          10          12          12
          10           8          11          11
          11           9          12          12
          10          11          12          12
          13          16          18          18
          16          14          17          17
          17          15          18          18
          16          17          18          18
          19          22          24          24
          22          20          23          23
          23          21          24          24
          22          23          24          24
          25          27          29          29
          27          13          28          28
          28          26          29          29
          27          28          29          29
          30          33          35          35
          33          31          34          34
          34          32          35          35
          33          34          35          35
          36          38          40          40
          38          37          39          39
          39          19          40          40
          38          39          40          40
          41          44          46          46
          44          42          45          45
          45          43          46          46
          44          45          46          46
          47          49          51          51
          49          48          50          50
          50           2          51          51
          49          50          51          51
          52          53          54          54
          53          47          51          51
          51           2          54          54
          53          51          54          54
          55          57          59          59
          57           3          58          58
          58          56          59          59
          57          58          59          59
          60          63          65          65
          63          61          64          64
          64          62          65          65
          63          64          65          65
          66          69          71          71
          69          67          70          70
          70          68          71          71
          69          70          71          71
          72          73          75          75
          73          66          74          74
          74          52          75          75
          73          74          75          75
          76          78          80          80
          78          77          79          79
          79          41          80          80
          78          79          80          80
          55          59          82          82
          59          56          81          81
          81          14          82          82
          59          81          82          82
          83          84          85          85
          84          30          35          35
          35          32          85          85
          84          35          85          85
          86          89          91          91
          89          87          90          90
          90          88          91          91
          89          90          91          91
          92          94          96          96
          94          88          95          95
          95          93          96          96
          94          95          96          96
          97         100         102         102
         100          98         101         101
         101          99         102         102
         100         101         102         102
         103         105         107         107
         105         104         106         106
         106          92         107         107
         105         106         107         107
         108         111         113         113
         111         109         112         112
         112         110         113         113
         111         112         113         113
         114         117         119         119
         117         115         118         118
         118         116         119         119
         117         118         119         119
         120         123         125         125
         123         121         124         124
         124         122         125         125
         123         124         125         125
         126         129         131         131
         129         127         130         130
         130         128         131         131
         129         130         131         131
         132         135         137         137
         135         133         136         136
         136         134         137         137
         135         136         137         137
         138         140         142         142
         140         139         141         141
         141         126         142         142
         140         141         142         142
         134         144         146         146
         144          25         145         145
         145         143         146         146
         144         145         146         146
         147         150         152         152
         150         148         151         151
         151         149         152         152
         150         151         152         152
         153         155         157         157
         155         147         156         156
         156         154         157         157
         155         156         157         157
         158         161         163         163
         161         159         162         162
         162         160         163         163
         161         162         163         163
         164         167         169         169
         167         165         168         168
         168         166         169         169
         167         168         169         169
         165         172         174         174
         172         170         173         173
         173         171         174         174
         172         173         174         174
         170         176         173         173
         176         175         177         177
         177         171         173         173
         176         177         173         173
         178         179         181         181
         179         116         180         180
         180         108         181         181
         179         180         181         181
         182         185         187         187
         185         183         186         186
         186         184         187         187
         185         186         187         187
          99         190         192         192
         190         188         191         191
         191         189         192         192
         190         191         192         192
          98         194         101         101
         194         193         195         195
         195          99         101         101
         194         195         101         101
         196         198         200         200
         198         197         199         199
         199          98         200         200
         198         199         200         200
          92          96         202         202
          96          93         201         201
         201         196         202         202
          96         201         202         202
          77         204         206         206
         204         203         205         205
         205          42         206         206
         204         205         206         206
          41          79          44          44
          79          77         206         206
         206          42          44          44
          79         206          44          44
          76         208         210         210
         208          62         209         209
         209         207         210         210
         208         209         210         210
         211         212         214         214
         212           1         213         213
         213          55         214         214
         212         213         214         214
         215         217         219         219
         217         216         218         218
         218          62         219         219
         217         218         219         219
           9         221         223         223
         221         220         222         222
         222         215         223         223
         221         222         223         223
         224         226         228         228
         226         225         227         227
         227           7         228         228
         226         227         228         228
          21         230         232         232
         230         229         231         231
         231         224         232         232
         230         231         232         232
         233         234         235         235
         234          21         232         232
         232         224         235         235
         234         232         235         235
         236         238         240         240
         238         237         239         239
         239          19         240         240
         238         239         240         240
         241         243         245         245
         243         242         244         244
         244         236         245         245
         243         244         245         245
         246         248         250         250
         248         247         249         249
         249         241         250         250
         248         249         250         250
         251         253         255         255
         253         252         254         254
         254         246         255         255
         253         254         255         255
         256         258         260         260
         258         257         259         259
         259         251         260         260
         258         259         260         260
         261         263         265         265
         263         262         264         264
         264         256         265         265
         263         264         265         265
         266         268         270         270
         268         267         269         269
         269         261         270         270
         268         269         270         270
         153         157         272         272
         157         154         271         271
         271         266         272         272
         157         271         272         272
          14          81          17          17
          81          56         273         273
         273          15          17          17
          81         273          17          17
          13          18          28          28
          18          15         274         274
         274          26          28          28
          18         274          28          28
          25          29         145         145
          29          26         275         275
         275         143         145         145
          29         275         145         145
         276         279         281         281
         279         277         280         280
         280         278         281         281
         279         280         281         281
         128         130         284         284
         130         127         283         283
         283         282         284         284
         130         283         284         284
         114         285         117         117
         285         282         286         286
         286         115         117         117
         285         286         117         117
         134         146         288         288
         146         143         287         287
         287          30         288         288
         146         287         288         288
         289         292         294         294
         292         290         293         293
         293         291         294         294
         292         293         294         294
         295         298         300         300
         298         296         299         299
         299         297         300         300
         298         299         300         300
         297         303         305         305
         303         301         304         304
         304         302         305         305
         303         304         305         305
          66          71          74          74
          71          68         306         306
         306          52          74          74
          71         306          74          74
          52         306          53          53
         306          68         307         307
         307          47          53          53
         306         307          53          53
          60         308         310         310
         308          41         309         309
         309         295         310         310
         308         309         310         310
         302         311         312         312
         311          67          69          69
          69          66         312         312
         311          69         312         312
         313         315         317         317
         315         302         316         316
         316         314         317         317
         315         316         317         317
         302         304         311         311
         304         301         318         318
         318          67         311         311
         304         318         311         311
         319         320         321         321
         320         295         300         300
         300         297         321         321
         320         300         321         321
         297         299         303         303
         299         296         322         322
         322         301         303         303
         299         322         303         303
         295         309         323         323
         309          41          46          46
          46          43         323         323
         309          46         323         323
         295         323         298         298
         323          43         324         324
         324         296         298         298
         323         324         298         298
         211         326         328         328
         326         325         327         327
         327          72         328         328
         326         327         328         328
         329         330         331         331
         330           7          12          12
          12           9         331         331
         330          12         331         331
          83          85         334         334
          85          32         333         333
         333         332         334         334
          85         333         334         334
         335         337         339         339
         337         336         338         338
         338         138         339         339
         337         338         339         339
         116         118         341         341
         118         115         340         340
         340         109         341         341
         118         340         341         341
         189         343         345         345
         343         342         344         344
         344         184         345         345
         343         344         345         345
         184         348         350         350
         348         346         349         349
         349         347         350         350
         348         349         350         350
         114         351         285         285
         351         128         284         284
         284         282         285         285
         351         284         285         285
         126         141         129         129
         141         139         352         352
         352         127         129         129
         141         352         129         129
          37         353          39          39
         353         236         240         240
         240          19          39          39
         353         240          39          39
         354         356         358         358
         356         138         357         357
         357         355         358         358
         356         357         358         358
         138         338         140         140
         338         336         359         359
         359         139         140         140
         338         359         140         140
         360         361         363         363
         361         132         362         362
         362          83         363         363
         361         362         363         363
         335         364         337         337
         364         332         365         365
         365         336         337         337
         364         365         337         337
          83         366          84          84
         366         134         288         288
         288          30          84          84
         366         288          84          84
          83         334         367         367
         334         332         364         364
         364         335         367         367
         334         364         367         367
         347         349         369         369
         349         346         368         368
         368         175         369         369
         349         368         369         369
         370         371         372         372
         371         246         250         250
         250         241         372         372
         371         250         372         372
         122         124         374         374
         124         121         373         373
         373         183         374         374
         124         373         374         374
         184         344         348         348
         344         342         375         375
         375         346         348         348
         344         375         348         348
         121         376         377         377
         376          99         192         192
         192         189         377         377
         376         192         377         377
         189         191         343         343
         191         188         378         378
         378         342         343         343
         191         378         343         343
         379         381         383         383
         381         103         382         382
         382         380         383         383
         381         382         383         383
          99         195         190         190
         195         193         384         384
         384         188         190         190
         195         384         190         190
         385         386         387         387
         386          98         100         100
         100          97         387         387
         386         100         387         387
          98         199         194         194
         199         197         388         388
         388         193         194         194
         199         388         194         194
         103         389         391         391
         389         196         390         390
         390         385         391         391
         389         390         391         391
         196         201         198         198
         201          93         392         392
         392         197         198         198
         201         392         198         198
         104         393         106         106
         393          86         394         394
         394          92         106         106
         393         394         106         106
          92         394          94          94
         394          86          91          91
          91          88          94          94
         394          91          94          94
         395         397         399         399
         397          61         398         398
         398         396         399         399
         397         398         399         399
          62         218         209         209
         218         216         400         400
         400         207         209         209
         218         400         209         209
         401         402         404         404
         402         215         403         403
         403          61         404         404
         402         403         404         404
         215         222         217         217
         222         220         405         405
         405         216         217         217
         222         405         217         217
         406         408         410         410
         408         407         409         409
         409         329         410         410
         408         409         410         410
           9          11         221         221
          11           8         411         411
         411         220         221         221
          11         411         221         221
         412         415         417         417
         415         413         416         416
         416         414         417         417
         415         416         417         417
           7         227          10          10
         227         225         418         418
         418           8          10          10
         227         418          10          10
         419         421         423         423
         421          13         422         422
         422         420         423         423
         421         422         423         423
         224         231         226         226
         231         229         424         424
         424         225         226         226
         231         424         226         226
          36         425         426         426
         425          21         234         234
         234         233         426         426
         425         234         426         426
          21          23         230         230
          23          20         427         427
         427         229         230         230
          23         427         230         230
         428         429         430         430
         429         370         372         372
         372         241         430         430
         429         372         430         430
          19         239          22          22
         239         237         431         431
         431          20          22          22
         239         431          22          22
         428         432         433         433
         432         236         353         353
         353          37         433         433
         432         353         433         433
         236         244         238         238
         244         242         434         434
         434         237         238         238
         244         434         238         238
         435         437         439         439
         437         114         438         438
         438         436         439         439
         437         438         439         439
         241         249         243         243
         249         247         440         440
         440         242         243         243
         249         440         243         243
         441         442         443         443
         442         158         163         163
         163         160         443         443
         442         163         443         443
         246         254         248         248
         254         252         444         444
         444         247         248         248
         254         444         248         248
         445         446         447         447
         446         246         371         371
         371         370         447         447
         446         371         447         447
         251         259         253         253
         259         257         448         448
         448         252         253         253
         259         448         253         253
         164         169         451         451
         169         166         450         450
         450         449         451         451
         169         450         451         451
         256         264         258         258
         264         262         452         452
         452         257         258         258
         264         452         258         258
         166         168         455         455
         168         165         454         454
         454         453         455         455
         168         454         455         455
         261         269         263         263
         269         267         456         456
         456         262         263         263
         269         456         263         263
         457         458         460         460
         458         261         459         459
         459         159         460         460
         458         459         460         460
         266         271         268         268
         271         154         461         461
         461         267         268         268
         271         461         268         268
         462         463         465         465
         463         148         464         464
         464         153         465         465
         463         464         465         465
         153         464         155         155
         464         148         150         150
         150         147         155         155
         464         150         155         155
         314         316         466         466
         316         302         312         312
         312          66         466         466
         316         312         466         466
         325         468         470         470
         468         467         469         469
         469         314         470         470
         468         469         470         470
         396         471         473         473
         471          60         472         472
         472         319         473         473
         471         472         473         473
         313         474         475         475
         474         319         321         321
         321         297         475         475
         474         321         475         475
         313         475         315         315
         475         297         305         305
         305         302         315         315
         475         305         315         315
         395         476         478         478
         476         406         477         477
         477         401         478         478
         476         477         478         478
         170         479         176         176
         479         347         369         369
         369         175         176         176
         479         369         176         176
         165         174         454         454
         174         171         480         480
         480         453         454         454
         174         480         454         454
         183         481         186         186
         481         189         345         345
         345         184         186         186
         481         345         186         186
         482         485         487         487
         485         483         486         486
         486         484         487         487
         485         486         487         487
         166         455         490         490
         455         453         489         489
         489         488         490         490
         455         489         490         490
         491         493         495         495
         493         492         494         494
         494         164         495         495
         493         494         495         495
         182         187         496         496
         187         184         350         350
         350         347         496         496
         187         350         496         496
         497         498         499         499
         498         122         374         374
         374         183         499         499
         498         374         499         499
         121         500         376         376
         500          97         102         102
         102          99         376         376
         500         102         376         376
         121         377         373         373
         377         189         481         481
         481         183         373         373
         377         481         373         373
         501         503         505         505
         503         380         504         504
         504         502         505         505
         503         504         505         505
         385         390         386         386
         390         196         200         200
         200          98         386         386
         390         200         386         386
         462         506         507         507
         506         166         490         490
         490         488         507         507
         506         490         507         507
         449         508         509         509
         508         153         272         272
         272         266         509         509
         508         272         509         509
         510         511         512         512
         511         347         479         479
         479         170         512         512
         511         479         512         512
         513         515         517         517
         515         370         516         516
         516         514         517         517
         515         516         517         517
         462         507         463         463
         507         488         518         518
         518         148         463         463
         507         518         463         463
         449         519         508         508
         519         462         465         465
         465         153         508         508
         519         465         508         508
         159         459         520         520
         459         261         265         265
         265         256         520         520
         459         265         520         520
         521         522         523         523
         522         256         260         260
         260         251         523         523
         522         260         523         523
         524         525         526         526
         525         224         228         228
         228           7         526         526
         525         228         526         526
         420         422         527         527
         422          13          27          27
          27          25         527         527
         422          27         527         527
         401         528         402         402
         528           9         223         223
         223         215         402         402
         528         223         402         402
         277         531         533         533
         531         529         532         532
         532         530         533         533
         531         532         533         533
          36          40         425         425
          40          19          24          24
          24          21         425         425
          40          24         425         425
         435         534         437         437
         534         128         351         351
         351         114         437         437
         534         351         437         437
         428         430         432         432
         430         241         245         245
         245         236         432         432
         430         245         432         432
         535         536         538         538
         536         355         537         537
         537         126         538         538
         536         537         538         538
         277         541         543         543
         541         539         542         542
         542         540         543         543
         541         542         543         543
         540         545         547         547
         545         544         546         546
         546          37         547         547
         545         546         547         547
         548         550         552         552
         550         535         551         551
         551         549         552         552
         550         551         552         552
         514         553         555         555
         553         428         554         554
         554         544         555         555
         553         554         555         555
         513         557         559         559
         557         556         558         558
         558         445         559         559
         557         558         559         559
         445         560         446         446
         560         251         255         255
         255         246         446         446
         560         255         446         446
          61         403          64          64
         403         215         219         219
         219          62          64          64
         403         219          64          64
         561         562         563         563
         562         319         474         474
         474         313         563         563
         562         474         563         563
          76         210          78          78
         210         207         564         564
         564          77          78          78
         210         564          78          78
          60         565         308         308
         565          76          80          80
          80          41         308         308
         565          80         308         308
         561         566         562         562
         566         396         473         473
         473         319         562         562
         566         473         562         562
         401         567         528         528
         567         329         331         331
         331           9         528         528
         567         331         528         528
         524         568         525         525
         568         233         235         235
         235         224         525         525
         568         235         525         525
         524         526         569         569
         526           7         330         330
         330         329         569         569
         526         330         569         569
         521         570         522         522
         570         159         520         520
         520         256         522         522
         570         520         522         522
         521         523         571         571
         523         251         560         560
         560         445         571         571
         523         560         571         571
         164         573         167         167
         573         572         574         574
         574         165         167         167
         573         574         167         167
         457         575         458         458
         575         266         270         270
         270         261         458         458
         575         270         458         458
           1         576           4           4
         576          52          54          54
          54           2           4           4
         576          54           4           4
           1           6         213         213
           6           3          57          57
          57          55         213         213
           6          57         213         213
         108         180         111         111
         180         116         341         341
         341         109         111         111
         180         341         111         111
         577         578         579         579
         578         108         113         113
         113         110         579         579
         578         113         579         579
         577         579         582         582
         579         110         581         581
         581         580         582         582
         579         581         582         582
         104         583         584         584
         583         577         582         582
         582         580         584         584
         583         582         584         584
         436         438         585         585
         438         114         119         119
         119         116         585         585
         438         119         585         585
         586         588         590         590
         588         483         589         589
         589         587         590         590
         588         589         590         590
         355         357         537         537
         357         138         142         142
         142         126         537         537
         357         142         537         537
         535         538         591         591
         538         126         131         131
         131         128         591         591
         538         131         591         591
         435         592         534         534
         592         535         591         591
         591         128         534         534
         592         591         534         534
         548         594         596         596
         594         593         595         595
         595         355         596         596
         594         595         596         596
         597         600         602         602
         600         598         601         601
         601         599         602         602
         600         601         602         602
         603         604         606         606
         604         549         605         605
         605         435         606         606
         604         605         606         606
         132         137         362         362
         137         134         366         366
         366          83         362         362
         137         366         362         362
         354         607         356         356
         607         335         339         339
         339         138         356         356
         607         339         356         356
         104         584         393         393
         584         580         608         608
         608          86         393         393
         584         608         393         393
         103         107         389         389
         107          92         202         202
         202         196         389         389
         107         202         389         389
          60          65         565         565
          65          62         208         208
         208          76         565         565
          65         208         565         565
          60         310         472         472
         310         295         320         320
         320         319         472         472
         310         320         472         472
         380         382         609         609
         382         103         391         391
         391         385         609         609
         382         391         609         609
         103         610         105         105
         610         577         583         583
         583         104         105         105
         610         583         105         105
         611         612         613         613
         612          55          82          82
          82          14         613         613
         612          82         613         613
         419         614         421         421
         614          14          16          16
          16          13         421         421
         614          16         421         421
         530         617         619         619
         617         615         618         618
         618         616         619         619
         617         618         619         619
         133         620         621         621
         620         420         527         527
         527          25         621         621
         620         527         621         621
         133         621         136         136
         621          25         144         144
         144         134         136         136
         621         144         136         136
         622         623         625         625
         623         354         624         624
         624         593         625         625
         623         624         625         625
         615         626         628         628
         626         524         627         627
         627         407         628         628
         626         627         628         628
         419         629         614         614
         629         611         613         613
         613          14         614         614
         629         613         614         614
          72         630          73          73
         630         314         466         466
         466          66          73          73
         630         466          73          73
          72          75         631         631
          75          52         576         576
         576           1         631         631
          75         576         631         631
         449         450         519         519
         450         166         506         506
         506         462         519         519
         450         506         519         519
         449         509         632         632
         509         266         575         575
         575         457         632         632
         509         575         632         632
         396         398         471         471
         398          61          63          63
          63          60         471         471
         398          63         471         471
         467         633         469         469
         633         313         317         317
         317         314         469         469
         633         317         469         469
         467         634         633         633
         634         561         563         563
         563         313         633         633
         634         563         633         633
         635         636         637         637
         636         467         468         468
         468         325         637         637
         636         468         637         637
         325         470         327         327
         470         314         630         630
         630          72         327         327
         470         630         327         327
         638         641         643         643
         641         639         642         642
         642         640         643         643
         641         642         643         643
         379         644         381         381
         644         577         610         610
         610         103         381         381
         644         610         381         381
         502         645         646         646
         645         385         387         387
         387          97         646         646
         645         387         646         646
         211         328         212         212
         328          72         631         631
         631           1         212         212
         328         631         212         212
         647         648         650         650
         648         616         649         649
         649         407         650         650
         648         649         650         650
         492         652         654         654
         652         651         653         653
         653         572         654         654
         652         653         654         654
         572         655         574         574
         655         170         172         172
         172         165         574         574
         655         172         574         574
         491         656         657         657
         656         449         632         632
         632         457         657         657
         656         632         657         657
         658         660         662         662
         660         659         661         661
         661         651         662         662
         660         661         662         662
         497         499         663         663
         499         183         185         185
         185         182         663         663
         499         185         663         663
         599         665         667         667
         665         664         666         666
         666         549         667         667
         665         666         667         667
         668         669         671         671
         669         182         670         670
         670         510         671         671
         669         670         671         671
         513         559         515         515
         559         445         447         447
         447         370         515         515
         559         447         515         515
         586         673         675         675
         673         501         674         674
         674         672         675         675
         673         674         675         675
         120         676         123         123
         676          97         500         500
         500         121         123         123
         676         500         123         123
         502         504         645         645
         504         380         609         609
         609         385         645         645
         504         609         645         645
         502         646         677         677
         646          97         676         676
         676         120         677         677
         646         676         677         677
         510         670         511         511
         670         182         496         496
         496         347         511         511
         670         496         511         511
         510         512         678         678
         512         170         655         655
         655         572         678         678
         512         655         678         678
         544         554         546         546
         554         428         433         433
         433          37         546         546
         554         433         546         546
         540         547         679         679
         547          37          38          38
          38          36         679         679
         547          38         679         679
         407         627         409         409
         627         524         569         569
         569         329         409         409
         627         569         409         409
         406         410         477         477
         410         329         567         567
         567         401         477         477
         410         567         477         477
         529         680         681         681
         680          36         426         426
         426         233         681         681
         680         426         681         681
         682         685         687         687
         685         683         686         686
         686         684         687         687
         685         686         687         687
         395         478         397         397
         478         401         404         404
         404          61         397         397
         478         404         397         397
         640         642         689         689
         642         639         688         688
         688         395         689         689
         642         688         689         689
         160         162         690         690
         162         159         570         570
         570         521         690         690
         162         570         690         690
         556         691         558         558
         691         521         571         571
         571         445         558         558
         691         571         558         558
         692         693         695         695
         693         544         694         694
         694         539         695         695
         693         694         695         695
         514         516         553         553
         516         370         429         429
         429         428         553         553
         516         429         553         553
         696         698         700         700
         698         556         699         699
         699         697         700         700
         698         699         700         700
         556         701         691         691
         701         160         690         690
         690         521         691         691
         701         690         691         691
         615         702         626         626
         702         233         568         568
         568         524         626         626
         702         568         626         626
         616         618         649         649
         618         615         628         628
         628         407         649         649
         618         628         649         649
         491         703         493         493
         703         158         704         704
         704         492         493         493
         703         704         493         493
         158         705         161         161
         705         457         460         460
         460         159         161         161
         705         460         161         161
         529         706         680         680
         706         540         679         679
         679          36         680         680
         706         679         680         680
         529         681         707         707
         681         233         702         702
         702         615         707         707
         681         702         707         707
         692         708         693         693
         708         514         555         555
         555         544         693         693
         708         555         693         693
         709         712         714         714
         712         710         713         713
         713         711         714         714
         712         713         714         714
         395         399         715         715
         399         396         566         566
         566         561         715         715
         399         566         715         715
         638         643         717         717
         643         640         716         716
         716         635         717         717
         643         716         717         717
         211         214         718         718
         214          55         612         612
         612         611         718         718
         214         612         718         718
         719         720         721         721
         720         211         718         718
         718         611         721         721
         720         718         721         721
         178         722         179         179
         722         436         585         585
         585         116         179         179
         722         585         179         179
         379         723         724         724
         723         178         181         181
         181         108         724         724
         723         181         724         724
         549         551         605         605
         551         535         592         592
         592         435         605         605
         551         592         605         605
         603         606         725         725
         606         435         439         439
         439         436         725         725
         606         439         725         725
         593         624         595         595
         624         354         358         358
         358         355         595         595
         624         358         595         595
         548         596         550         550
         596         355         536         536
         536         535         550         550
         596         536         550         550
         692         727         708         708
         727         726         728         728
         728         514         708         708
         727         728         708         708
         664         729         731         731
         729         290         730         730
         730         548         731         731
         729         730         731         731
         732         733         734         734
         733         436         722         722
         722         178         734         734
         733         722         734         734
         735         736         737         737
         736         120         125         125
         125         122         737         737
         736         125         737         737
         360         363         738         738
         363          83         367         367
         367         335         738         738
         363         367         738         738
         360         739         361         361
         739         622         740         740
         740         132         361         361
         739         740         361         361
         379         724         644         644
         724         108         578         578
         578         577         644         644
         724         578         644         644
         501         741         503         503
         741         379         383         383
         383         380         503         503
         741         383         503         503
         501         742         741         741
         742         178         723         723
         723         379         741         741
         742         723         741         741
         672         743         744         744
         743         120         736         736
         736         735         744         744
         743         736         744         744
         745         746         748         748
         746         133         747         747
         747         622         748         748
         746         747         748         748
         622         747         740         740
         747         133         135         135
         135         132         740         740
         747         135         740         740
         719         749         720         720
         749         325         326         326
         326         211         720         720
         749         326         720         720
         413         751         753         753
         751         750         752         752
         752         616         753         753
         751         752         753         753
         754         756         758         758
         756         755         757         757
         757         659         758         758
         756         757         758         758
         651         759         653         653
         759         510         678         678
         678         572         653         653
         759         678         653         653
         760         761         762         762
         761         122         498         498
         498         497         762         762
         761         498         762         762
         760         763         761         761
         763         735         737         737
         737         122         761         761
         763         737         761         761
         672         674         764         764
         674         501         505         505
         505         502         764         764
         674         505         764         764
         672         764         743         743
         764         502         677         677
         677         120         743         743
         764         677         743         743
         492         654         494         494
         654         572         573         573
         573         164         494         494
         654         573         494         494
         441         765         442         442
         765         492         704         704
         704         158         442         442
         765         704         442         442
         755         766         768         768
         766         497         767         767
         767         668         768         768
         766         767         768         768
         697         699         769         769
         699         556         557         557
         557         513         769         769
         699         557         769         769
         668         767         669         669
         767         497         663         663
         663         182         669         669
         767         663         669         669
         668         671         770         770
         671         510         759         759
         759         651         770         770
         671         759         770         770
         491         495         656         656
         495         164         451         451
         451         449         656         656
         495         451         656         656
         491         657         703         703
         657         457         705         705
         705         158         703         703
         657         705         703         703
         726         771         728         728
         771         513         517         517
         517         514         728         728
         771         517         728         728
         772         774         776         776
         774         773         775         775
         775         697         776         776
         774         775         776         776
         647         650         777         777
         650         407         408         408
         408         406         777         777
         650         408         777         777
         750         778         752         752
         778         530         619         619
         619         616         752         752
         778         619         752         752
         779         782         784         784
         782         780         783         783
         783         781         784         784
         782         783         784         784
         530         532         617         617
         532         529         707         707
         707         615         617         617
         532         707         617         617
         785         786         788         788
         786         441         787         787
         787         696         788         788
         786         787         788         788
         696         789         698         698
         789         160         701         701
         701         556         698         698
         789         701         698         698
         658         790         791         791
         790         492         765         765
         765         441         791         791
         790         765         791         791
         441         443         787         787
         443         160         789         789
         789         696         787         787
         443         789         787         787
         539         694         542         542
         694         544         545         545
         545         540         542         542
         694         545         542         542
         277         543         531         531
         543         540         706         706
         706         529         531         531
         543         706         531         531
         639         792         793         793
         792         647         777         777
         777         406         793         793
         792         777         793         793
         414         794         795         795
         794         638         717         717
         717         635         795         795
         794         717         795         795
         598         797         799         799
         797         796         798         798
         798         664         799         799
         797         798         799         799
         726         800         771         771
         800         697         769         769
         769         513         771         771
         800         769         771         771
         278         801         802         802
         801         530         778         778
         778         750         802         802
         801         778         802         802
         803         804         805         805
         804         278         802         802
         802         750         805         805
         804         802         805         805
         639         793         688         688
         793         406         476         476
         476         395         688         688
         793         476         688         688
         640         689         806         806
         689         395         715         715
         715         561         806         806
         689         715         806         806
         807         808         810         810
         808         539         809         809
         809         276         810         810
         808         809         810         810
         811         813         815         815
         813         807         814         814
         814         812         815         815
         813         814         815         815
         719         816         749         749
         816         635         637         637
         637         325         749         749
         816         637         749         749
         817         818         819         819
         818         611         629         629
         629         419         819         819
         818         629         819         819
         732         820         733         733
         820         603         725         725
         725         436         733         733
         820         725         733         733
         732         734         821         821
         734         178         742         742
         742         501         821         821
         734         742         821         821
         290         822         730         730
         822         593         594         594
         594         548         730         730
         822         594         730         730
         664         731         666         666
         731         548         552         552
         552         549         666         666
         731         552         666         666
         599         667         823         823
         667         549         604         604
         604         603         823         823
         667         604         823         823
         824         825         827         827
         825         692         826         826
         826         807         827         827
         825         826         827         827
         587         828         829         829
         828         603         820         820
         820         732         829         829
         828         820         829         829
         484         486         831         831
         486         483         830         830
         830         735         831         831
         486         830         831         831
         640         806         832         832
         806         561         634         634
         634         467         832         832
         806         634         832         832
         640         832         716         716
         832         467         636         636
         636         635         716         716
         832         636         716         716
         754         758         834         834
         758         659         833         833
         833         785         834         834
         758         833         834         834
         659         835         661         661
         835         668         770         770
         770         651         661         661
         835         770         661         661
         483         836         830         830
         836         672         744         744
         744         735         830         830
         836         744         830         830
         484         831         837         837
         831         735         763         763
         763         760         837         837
         831         763         837         837
         838         839         841         841
         839         760         840         840
         840         755         841         841
         839         840         841         841
         842         844         846         846
         844         711         845         845
         845         843         846         846
         844         845         846         846
         658         662         790         790
         662         651         652         652
         652         492         790         790
         662         652         790         790
         785         847         786         786
         847         658         791         791
         791         441         786         786
         847         791         786         786
         413         753         848         848
         753         616         648         648
         648         647         848         848
         753         648         848         848
         849         851         853         853
         851         412         852         852
         852         850         853         853
         851         852         853         853
         773         854         775         775
         854         696         700         700
         700         697         775         775
         854         700         775         775
         772         776         855         855
         776         697         800         800
         800         726         855         855
         776         800         855         855
         360         738         856         856
         738         335         607         607
         607         354         856         856
         738         607         856         856
         360         856         739         739
         856         354         623         623
         623         622         739         739
         856         623         739         739
         785         833         847         847
         833         659         660         660
         660         658         847         847
         833         660         847         847
         785         788         857         857
         788         696         854         854
         854         773         857         857
         788         854         857         857
         683         859         686         686
         859         858         860         860
         860         684         686         686
         859         860         686         686
         278         280         801         801
         280         277         533         533
         533         530         801         801
         280         533         801         801
         638         861         862         862
         861         413         848         848
         848         647         862         862
         861         848         862         862
         863         864         866         866
         864         719         865         865
         865         817         866         866
         864         865         866         866
         824         867         825         825
         867         726         727         727
         727         692         825         825
         867         727         825         825
         868         869         870         870
         869         842         846         846
         846         843         870         870
         869         846         870         870
         638         862         641         641
         862         647         792         792
         792         639         641         641
         862         792         641         641
         414         795         871         871
         795         635         816         816
         816         719         871         871
         795         816         871         871
         872         873         874         874
         873         278         804         804
         804         803         874         874
         873         804         874         874
         276         809         279         279
         809         539         541         541
         541         277         279         279
         809         541         279         279
         812         875         877         877
         875         276         876         876
         876         872         877         877
         875         876         877         877
         807         826         808         808
         826         692         695         695
         695         539         808         808
         826         695         808         808
         878         879         881         881
         879         780         880         880
         880         843         881         881
         879         880         881         881
         824         882         867         867
         882         772         855         855
         855         726         867         867
         882         855         867         867
         755         840         766         766
         840         760         762         762
         762         497         766         766
         840         762         766         766
         755         768         757         757
         768         668         835         835
         835         659         757         757
         768         835         757         757
         587         883         828         828
         883         599         823         823
         823         603         828         828
         883         823         828         828
         586         590         884         884
         590         587         829         829
         829         732         884         884
         590         829         884         884
         796         885         798         798
         885         290         729         729
         729         664         798         798
         885         729         798         798
         598         799         601         601
         799         664         665         665
         665         599         601         601
         799         665         601         601
         597         602         886         886
         602         599         883         883
         883         587         886         886
         602         883         886         886
         887         888         890         890
         888         710         889         889
         889         772         890         890
         888         889         890         890
         586         884         673         673
         884         732         821         821
         821         501         673         673
         884         821         673         673
         586         675         588         588
         675         672         836         836
         836         483         588         588
         675         836         588         588
         817         865         818         818
         865         719         721         721
         721         611         818         818
         865         721         818         818
         414         416         794         794
         416         413         861         861
         861         638         794         794
         416         861         794         794
         858         891         892         892
         891         817         819         819
         819         419         892         892
         891         819         892         892
         863         893         894         894
         893         412         417         417
         417         414         894         894
         893         417         894         894
         709         895         896         896
         895         785         857         857
         857         773         896         896
         895         857         896         896
         709         714         898         898
         714         711         897         897
         897         754         898         898
         714         897         898         898
         412         899         900         900
         899         803         805         805
         805         750         900         900
         899         805         900         900
         901         902         903         903
         902         872         874         874
         874         803         903         903
         902         874         903         903
         412         900         415         415
         900         750         751         751
         751         413         415         415
         900         751         415         415
         849         853         905         905
         853         850         904         904
         904         858         905         905
         853         904         905         905
         710         906         889         889
         906         773         774         774
         774         772         889         889
         906         774         889         889
         887         890         907         907
         890         772         882         882
         882         824         907         907
         890         882         907         907
         908         909         910         910
         909         872         902         902
         902         901         910         910
         909         902         910         910
         872         876         873         873
         876         276         281         281
         281         278         873         873
         876         281         873         873
         811         911         813         813
         911         824         827         827
         827         807         813         813
         911         827         813         813
         878         881         913         913
         881         843         912         912
         912         887         913         913
         881         912         913         913
         781         914         916         916
         914         878         915         915
         915         811         916         916
         914         915         916         916
         812         814         875         875
         814         807         810         810
         810         276         875         875
         814         810         875         875
         781         917         919         919
         917         812         918         918
         918         908         919         919
         917         918         919         919
         811         920         911         911
         920         887         907         907
         907         824         911         911
         920         907         911         911
         838         921         839         839
         921         484         837         837
         837         760         839         839
         921         837         839         839
         838         841         922         922
         841         755         756         756
         756         754         922         922
         841         756         922         922
         482         923         485         485
         923         587         589         589
         589         483         485         485
         923         589         485         485
         842         924         844         844
         924         838         925         925
         925         711         844         844
         924         925         844         844
         745         926         746         746
         926         682         927         927
         927         133         746         746
         926         927         746         746
         291         293         928         928
         293         290         885         885
         885         796         928         928
         293         885         928         928
         863         894         864         864
         894         414         871         871
         871         719         864         864
         894         871         864         864
         850         929         930         930
         929         863         866         866
         866         817         930         930
         929         866         930         930
         780         931         932         932
         931         796         797         797
         797         598         932         932
         931         797         932         932
         868         870         933         933
         870         843         880         880
         880         780         933         933
         870         880         933         933
         684         934         935         935
         934         419         423         423
         423         420         935         935
         934         423         935         935
         936         937         938         938
         937         683         685         685
         685         682         938         938
         937         685         938         938
         850         852         929         929
         852         412         893         893
         893         863         929         929
         852         893         929         929
         850         930         904         904
         930         817         891         891
         891         858         904         904
         930         891         904         904
         711         925         897         897
         925         838         922         922
         922         754         897         897
         925         922         897         897
         843         845         939         939
         845         711         713         713
         713         710         939         939
         845         713         939         939
         683         940         859         859
         940         849         905         905
         905         858         859         859
         940         905         859         859
         849         941         851         851
         941         803         899         899
         899         412         851         851
         941         899         851         851
         942         943         944         944
         943         908         910         910
         910         901         944         944
         943         910         944         944
         901         903         945         945
         903         803         941         941
         941         849         945         945
         903         941         945         945
         843         939         912         912
         939         710         888         888
         888         887         912         912
         939         888         912         912
         868         933         946         946
         933         780         932         932
         932         598         946         946
         933         932         946         946
         482         947         948         948
         947         842         869         869
         869         868         948         948
         947         869         948         948
         842         949         924         924
         949         484         921         921
         921         838         924         924
         949         921         924         924
         779         784         950         950
         784         781         919         919
         919         908         950         950
         784         919         950         950
         908         918         909         909
         918         812         877         877
         877         872         909         909
         918         877         909         909
         878         913         915         915
         913         887         920         920
         920         811         915         915
         913         920         915         915
         781         916         917         917
         916         811         815         815
         815         812         917         917
         916         815         917         917
         951         952         953         953
         952         908         943         943
         943         942         953         953
         952         943         953         953
         781         783         914         914
         783         780         879         879
         879         878         914         914
         783         879         914         914
         779         954         955         955
         954         291         928         928
         928         796         955         955
         954         928         955         955
         779         955         782         782
         955         796         931         931
         931         780         782         782
         955         931         782         782
         868         946         956         956
         946         598         600         600
         600         597         956         956
         946         600         956         956
         482         948         957         957
         948         868         956         956
         956         597         957         957
         948         956         957         957
         289         958         959         959
         958         622         625         625
         625         593         959         959
         958         625         959         959
         289         959         292         292
         959         593         822         822
         822         290         292         292
         959         822         292         292
         709         898         895         895
         898         754         834         834
         834         785         895         895
         898         834         895         895
         709         896         712         712
         896         773         906         906
         906         710         712         712
         896         906         712         712
         684         860         934         934
         860         858         892         892
         892         419         934         934
         860         892         934         934
         682         687         960         960
         687         684         935         935
         935         420         960         960
         687         935         960         960
         961         962         964         964
         962         936         963         963
         963         942         964         964
         962         963         964         964
         961         965         966         966
         965         849         940         940
         940         683         966         966
         965         940         966         966
         682         960         927         927
         960         420         620         620
         620         133         927         927
         960         620         927         927
         745         967         926         926
         967         936         938         938
         938         682         926         926
         967         938         926         926
         951         953         968         968
         953         942         963         963
         963         936         968         968
         953         963         968         968
         961         964         969         969
         964         942         944         944
         944         901         969         969
         964         944         969         969
         482         957         923         923
         957         597         886         886
         886         587         923         923
         957         886         923         923
         482         487         947         947
         487         484         949         949
         949         842         947         947
         487         949         947         947
         936         970         971         971
         970         289         294         294
         294         291         971         971
         970         294         971         971
         951         968         972         972
         968         936         971         971
         971         291         972         972
         968         971         972         972
         961         969         965         965
         969         901         945         945
         945         849         965         965
         969         945         965         965
         961         966         962         962
         966         683         937         937
         937         936         962         962
         966         937         962         962
         951         972         973         973
         972         291         954         954
         954         779         973         973
         972         954         973         973
         951         973         952         952
         973         779         950         950
         950         908         952         952
         973         950         952         952
         745         748         974         974
         748         622         958         958
         958         289         974         974
         748         958         974         974
         745         974         967         967
         974         289         970         970
         970         936         967         967
         974         970         967         967
 VARIABLES = X,Y,DU1,DU2,U1,U2,S11,S22,S33,S12
 ZONE, T="0.3000D+01" F=FEPOINT, I=  974 J= 1828
   0.3711665838E-01   0.1123379326E+00   0.2007326007E-04  -0.3245447713E-04   0.4014652013E-04  -0.6490895427E-04   0.1440105157E+00   0.1742827348E-01   0.0000000000E+00  -0.1404136437E-01
   0.1955587875E-01   0.9797915001E-01   0.1561544987E-04  -0.3312553065E-04   0.3123089974E-04  -0.6625106131E-04   0.2126183032E+00   0.1047645357E-01   0.0000000000E+00  -0.3755122877E-01
   0.3835998759E-01   0.9229622404E-01   0.3054832926E-04  -0.3057595206E-04   0.6109665852E-04  -0.6115190411E-04   0.1542497766E+00   0.2540594376E-01   0.0000000000E+00  -0.6062355515E-01
   0.2833737912E-01   0.1051571029E+00   0.1821454130E-04  -0.3327068920E-04   0.3642908260E-04  -0.6654137840E-04   0.1700453463E+00   0.1408960026E-01   0.0000000000E+00  -0.2739180860E-01
   0.2909812198E-01   0.9559811244E-01   0.2321805887E-04  -0.3197428743E-04   0.4643611773E-04  -0.6394857486E-04   0.1964597379E+00   0.2138738350E-01   0.0000000000E+00  -0.5587797679E-01
   0.3773552339E-01   0.1023172014E+00   0.2437759618E-04  -0.3147554685E-04   0.4875519235E-04  -0.6295109370E-04   0.1487141032E+00   0.1911352333E-01   0.0000000000E+00  -0.3498340833E-01
   0.1069883501E+00   0.2330329191E+00   0.2616969078E-04  -0.2929328556E-04   0.5233938155E-04  -0.5858657112E-04   0.8595445736E-01  -0.4447666414E-03   0.0000000000E+00   0.4975941348E-02
   0.9728434250E-01   0.2499024427E+00   0.2070619849E-04  -0.3251910997E-04   0.4141239697E-04  -0.6503821993E-04   0.8215275301E-01   0.6152286277E-04   0.0000000000E+00   0.2395515379E-03
   0.8743133820E-01   0.2329272742E+00   0.2072396766E-04  -0.3294761397E-04   0.4144793533E-04  -0.6589522794E-04   0.8128760066E-01  -0.2213645741E-03   0.0000000000E+00   0.5815585465E-02
   0.1021365307E+00   0.2414676300E+00   0.2349924523E-04  -0.3092334910E-04   0.4699849045E-04  -0.6184669820E-04   0.8401463127E-01  -0.1352825768E-03   0.0000000000E+00   0.2656122183E-02
   0.9235812011E-01   0.2414148665E+00   0.2080957062E-04  -0.3273082181E-04   0.4161914124E-04  -0.6546164361E-04   0.8150476864E-01  -0.1758508318E-03   0.0000000000E+00   0.2967559576E-02
   0.9720973089E-01   0.2329800813E+00   0.2340779517E-04  -0.3112557445E-04   0.4681559034E-04  -0.6225114889E-04   0.8377619453E-01  -0.2681779688E-03   0.0000000000E+00   0.5443416413E-02
   0.8890345413E-01   0.7376102867E-01   0.5609200861E-04  -0.1510310889E-04   0.1121840172E-03  -0.3020621779E-04   0.4929120696E-01  -0.7742466410E-02   0.0000000000E+00  -0.2045384805E-01
   0.7342721392E-01   0.8908135712E-01   0.4472540785E-04  -0.2114632678E-04   0.8945081570E-04  -0.4229265357E-04   0.8317412918E-01   0.3372287862E-02   0.0000000000E+00  -0.2497784725E-01
   0.7087761165E-01   0.7064481900E-01   0.5564341607E-04  -0.2195413443E-04   0.1112868321E-03  -0.4390826886E-04   0.3101398008E-01   0.2719386348E-01   0.0000000000E+00  -0.2952668923E-01
   0.8116615266E-01   0.8142112502E-01   0.5068035339E-04  -0.1814859339E-04   0.1013607068E-03  -0.3629718679E-04   0.6598812135E-01  -0.1823090148E-02   0.0000000000E+00  -0.2288034015E-01
   0.7215113351E-01   0.7986411536E-01   0.4975800477E-04  -0.2120904810E-04   0.9951600954E-04  -0.4241809620E-04   0.5745774552E-01   0.1430020171E-01   0.0000000000E+00  -0.2878449125E-01
   0.7988967042E-01   0.7220384355E-01   0.5558147383E-04  -0.1822204962E-04   0.1111629477E-03  -0.3644409923E-04   0.4126232409E-01   0.9714205976E-02   0.0000000000E+00  -0.2371819497E-01
   0.1654050147E+00   0.2330485002E+00   0.4387722956E-04  -0.1947027053E-04   0.8775445913E-04  -0.3894054107E-04   0.9392764551E-01  -0.4778802862E-03   0.0000000000E+00   0.1182637850E-02
   0.1556708607E+00   0.2499324919E+00   0.3843323091E-04  -0.2250271123E-04   0.7686646182E-04  -0.4500542246E-04   0.9736615864E-01   0.9986943053E-04   0.0000000000E+00   0.5299900899E-04
   0.1459396528E+00   0.2330511971E+00   0.3781560343E-04  -0.2240597037E-04   0.7563120687E-04  -0.4481194075E-04   0.9240438244E-01  -0.5481751972E-03   0.0000000000E+00   0.2429889342E-02
   0.1605380994E+00   0.2414905402E+00   0.4120914292E-04  -0.2097192258E-04   0.8241828583E-04  -0.4194384516E-04   0.9548714137E-01  -0.2152748640E-03   0.0000000000E+00   0.6997857388E-03
   0.1508052533E+00   0.2414919046E+00   0.3812344977E-04  -0.2243412906E-04   0.7624689953E-04  -0.4486825813E-04   0.9466685420E-01  -0.2483240860E-03   0.0000000000E+00   0.1155481328E-02
   0.1556722974E+00   0.2330500054E+00   0.4083445952E-04  -0.2088585991E-04   0.8166891905E-04  -0.4177171982E-04   0.9344636006E-01  -0.4069892643E-03   0.0000000000E+00   0.1796445998E-02
   0.1020123184E+00   0.5680401847E-01   0.6545248244E-04  -0.9701141767E-05   0.1309049649E-03  -0.1940228353E-04   0.2465708670E-01  -0.2037922017E-01   0.0000000000E+00  -0.1461412406E-01
   0.8334171137E-01   0.5550695987E-01   0.6491728908E-04  -0.1668794492E-04   0.1298345782E-03  -0.3337588983E-04   0.1509336848E-02  -0.9941249791E-03   0.0000000000E+00  -0.1884142071E-02
   0.9545888556E-01   0.6528261630E-01   0.6110651837E-04  -0.1237183385E-04   0.1222130367E-03  -0.2474366770E-04   0.3521895077E-01  -0.1568454231E-01   0.0000000000E+00  -0.1665629315E-01
   0.8612220835E-01   0.6463481528E-01   0.6037984946E-04  -0.1562124073E-04   0.1207596989E-03  -0.3124248147E-04   0.2499845159E-01  -0.3306010642E-02   0.0000000000E+00  -0.1292876324E-01
   0.9267630917E-01   0.5615701214E-01   0.6494835786E-04  -0.1268688825E-04   0.1298967157E-03  -0.2537377649E-04   0.1533766807E-01  -0.1082296766E-01   0.0000000000E+00  -0.8217148310E-02
   0.9830572294E-01   0.1949235198E-01   0.7573211451E-04  -0.5560139917E-05   0.1514642290E-03  -0.1112027983E-04  -0.4850986937E-02  -0.6875419082E-01   0.0000000000E+00   0.1040583323E-01
   0.1002310278E+00   0.0000000000E+00   0.7700892032E-04   0.0000000000E+00   0.1540178406E-03   0.0000000000E+00  -0.1196023373E-02  -0.8456691979E-01   0.0000000000E+00   0.5242490914E-03
   0.1210672287E+00   0.0000000000E+00   0.7796623034E-04   0.0000000000E+00   0.1559324607E-03   0.0000000000E+00  -0.4245216268E-02  -0.3130286237E-01   0.0000000000E+00  -0.1228934504E-02
   0.9974861009E-01   0.9793359408E-02   0.7671319678E-04  -0.2785090731E-05   0.1534263936E-03  -0.5570181462E-05  -0.3398680581E-03  -0.8422447418E-01   0.0000000000E+00   0.4702070445E-02
   0.1106497301E+00   0.0000000000E+00   0.7768802592E-04   0.0000000000E+00   0.1553760518E-03   0.0000000000E+00  -0.3582159620E-02  -0.5516327213E-01   0.0000000000E+00  -0.4510907743E-04
   0.1096878223E+00   0.9749105537E-02   0.7729808917E-04  -0.1803547560E-05   0.1545961783E-03  -0.3607095120E-05  -0.5226150192E-02  -0.5209203923E-01   0.0000000000E+00   0.2892455847E-02
   0.1556650668E+00   0.2161373773E+00   0.4306328094E-04  -0.1926289554E-04   0.8612656187E-04  -0.3852579107E-04   0.9087313987E-01  -0.1946786554E-02   0.0000000000E+00   0.2648494682E-02
   0.1751392723E+00   0.2161292761E+00   0.4900311435E-04  -0.1653928359E-04   0.9800622869E-04  -0.3307856719E-04   0.9098993780E-01  -0.1605065937E-02   0.0000000000E+00   0.7959871734E-03
   0.1654021697E+00   0.2161334970E+00   0.4603322852E-04  -0.1784433125E-04   0.9206645704E-04  -0.3568866251E-04   0.9108397486E-01  -0.1727497291E-02   0.0000000000E+00   0.1699108164E-02
   0.1702722231E+00   0.2245889277E+00   0.4646902710E-04  -0.1799177808E-04   0.9293805420E-04  -0.3598355615E-04   0.9234643577E-01  -0.1108734928E-02   0.0000000000E+00   0.1062564709E-02
   0.1605350099E+00   0.2245929700E+00   0.4346230438E-04  -0.1935633879E-04   0.8692460876E-04  -0.3871267757E-04   0.9229500754E-01  -0.1200550045E-02   0.0000000000E+00   0.1853024690E-02
   0.1753033770E-01   0.2244106309E+00   0.4088733799E-05  -0.4186971587E-04   0.8177467597E-05  -0.8373943175E-04   0.7127700940E-01   0.2113854901E-02   0.0000000000E+00   0.3045498865E-02
   0.0000000000E+00   0.2311216723E+00   0.0000000000E+00  -0.4277689476E-04   0.0000000000E+00  -0.8555378953E-04   0.6670135682E-01   0.1297280647E-02   0.0000000000E+00   0.1123394286E-03
   0.0000000000E+00   0.2123751544E+00   0.0000000000E+00  -0.4161721495E-04   0.0000000000E+00  -0.8323442990E-04   0.7706964583E-01   0.4761573876E-02   0.0000000000E+00   0.1077795702E-03
   0.8764987059E-02   0.2277657706E+00   0.1983776297E-05  -0.4244780465E-04   0.3967552595E-05  -0.8489560929E-04   0.6890316736E-01   0.1828062097E-02   0.0000000000E+00   0.1537786766E-02
   0.0000000000E+00   0.2217484224E+00   0.0000000000E+00  -0.4219652804E-04   0.0000000000E+00  -0.8439305609E-04   0.7160593054E-01   0.2894547816E-02   0.0000000000E+00   0.3798684963E-06
   0.8765416348E-02   0.2183925397E+00   0.2126872779E-05  -0.4186111344E-04   0.4253745559E-05  -0.8372222688E-04   0.7420467944E-01   0.3551757874E-02   0.0000000000E+00   0.1552918251E-02
   0.0000000000E+00   0.1186397195E+00   0.0000000000E+00  -0.3675982850E-04   0.0000000000E+00  -0.7351965701E-04   0.1594666292E+00   0.2305624977E-01   0.0000000000E+00   0.1922388779E-02
   0.0000000000E+00   0.9989832396E-01   0.0000000000E+00  -0.3389234625E-04   0.0000000000E+00  -0.6778469251E-04   0.2397298275E+00   0.1841663326E-02   0.0000000000E+00  -0.1549359783E-02
   0.0000000000E+00   0.1092678154E+00   0.0000000000E+00  -0.3572820935E-04   0.0000000000E+00  -0.7145641870E-04   0.1960425567E+00   0.1453235059E-01   0.0000000000E+00   0.7820974035E-04
   0.9825248736E-02   0.9941718857E-01   0.7844685441E-05  -0.3376064413E-04   0.1568937088E-04  -0.6752128826E-04   0.2374158582E+00   0.1643847237E-02   0.0000000000E+00  -0.1802173953E-01
   0.9773381612E-02   0.1083081654E+00   0.6288477293E-05  -0.3536586968E-04   0.1257695459E-04  -0.7073173937E-04   0.1903971839E+00   0.1776403770E-01   0.0000000000E+00  -0.1428483306E-01
   0.1826208050E-01   0.1244632305E+00   0.8577368119E-05  -0.3630916508E-04   0.1715473624E-04  -0.7261833016E-04   0.1438487885E+00   0.2316742624E-01   0.0000000000E+00  -0.1118436921E-02
   0.9131794919E-02   0.1215507695E+00   0.4540239756E-05  -0.3677082633E-04   0.9080479513E-05  -0.7354165266E-04   0.1519039774E+00   0.2173608377E-01   0.0000000000E+00   0.1477271935E-03
   0.1890599376E-01   0.1112201899E+00   0.1110141916E-04  -0.3504936310E-04   0.2220283831E-04  -0.7009872620E-04   0.1758609448E+00   0.1869349501E-01   0.0000000000E+00  -0.1616492917E-01
   0.5568228265E-01   0.1017196030E+00   0.3238758430E-04  -0.2725933533E-04   0.6477516861E-04  -0.5451867065E-04   0.1188007376E+00   0.1136532999E-01   0.0000000000E+00  -0.2355582114E-01
   0.5568923634E-01   0.8306682425E-01   0.4407088017E-04  -0.2671175036E-04   0.8814176034E-04  -0.5342350071E-04   0.8568649890E-01   0.3551233372E-01   0.0000000000E+00  -0.5486222979E-01
   0.4702106817E-01   0.9700725686E-01   0.3144625738E-04  -0.2913768161E-04   0.6289251476E-04  -0.5827536322E-04   0.1327311583E+00   0.1915749076E-01   0.0000000000E+00  -0.4120766706E-01
   0.4725218367E-01   0.8810594255E-01   0.3750308993E-04  -0.2872835038E-04   0.7500617987E-04  -0.5745670075E-04   0.1257169670E+00   0.3481933037E-01   0.0000000000E+00  -0.6242559272E-01
   0.5568361750E-01   0.9239400734E-01   0.3751523240E-04  -0.2672088572E-04   0.7503046479E-04  -0.5344177144E-04   0.1030902338E+00   0.2115656132E-01   0.0000000000E+00  -0.3934633228E-01
   0.3654239336E-01   0.2152967501E+00   0.9151820770E-05  -0.3965531052E-04   0.1830364154E-04  -0.7931062104E-04   0.7779339133E-01   0.2748226331E-02   0.0000000000E+00   0.6936502936E-02
   0.5765435272E-01   0.2157747777E+00   0.1463600625E-04  -0.3678977361E-04   0.2927201250E-04  -0.7357954723E-04   0.8045624899E-01   0.1209116978E-02   0.0000000000E+00   0.9008657459E-02
   0.4855082703E-01   0.2329685466E+00   0.1084727702E-04  -0.3938613174E-04   0.2169455403E-04  -0.7877226347E-04   0.7143494333E-01   0.4840744135E-03   0.0000000000E+00   0.5181329022E-02
   0.4709829362E-01   0.2155354071E+00   0.1186744132E-04  -0.3834397418E-04   0.2373488265E-04  -0.7668794836E-04   0.7898487058E-01   0.1978503580E-02   0.0000000000E+00   0.8077122273E-02
   0.5310255010E-01   0.2243715461E+00   0.1272839951E-04  -0.3812928543E-04   0.2545679902E-04  -0.7625857085E-04   0.7606041417E-01   0.1035257047E-02   0.0000000000E+00   0.7015812843E-02
   0.4254694661E-01   0.2241325570E+00   0.1011170246E-04  -0.3955133846E-04   0.2022340492E-04  -0.7910267692E-04   0.7464944300E-01   0.1465506441E-02   0.0000000000E+00   0.6116295917E-02
   0.1746062811E-01   0.1455423229E+00   0.6449304022E-05  -0.3755104751E-04   0.1289860804E-04  -0.7510209501E-04   0.1161409359E+00   0.2094670500E-01   0.0000000000E+00   0.4091651195E-02
   0.0000000000E+00   0.1561337156E+00   0.0000000000E+00  -0.3876146168E-04   0.0000000000E+00  -0.7752292337E-04   0.1076908334E+00   0.2041890490E-01   0.0000000000E+00   0.3171184945E-03
   0.0000000000E+00   0.1373861033E+00   0.0000000000E+00  -0.3796657848E-04   0.0000000000E+00  -0.7593315695E-04   0.1263892545E+00   0.2465510010E-01   0.0000000000E+00   0.1165430823E-02
   0.8729906873E-02   0.1508374229E+00   0.3088927672E-05  -0.3835503413E-04   0.6177855345E-05  -0.7671006827E-04   0.1121730622E+00   0.2101971783E-01   0.0000000000E+00   0.1802179421E-02
   0.0000000000E+00   0.1467598623E+00   0.0000000000E+00  -0.3837722668E-04   0.0000000000E+00  -0.7675445335E-04   0.1175655562E+00   0.2256655539E-01   0.0000000000E+00  -0.2146436389E-04
   0.8730705492E-02   0.1414636470E+00   0.3355133868E-05  -0.3794499170E-04   0.6710267736E-05  -0.7588998340E-04   0.1215167785E+00   0.2272173845E-01   0.0000000000E+00   0.2282255528E-02
   0.3597350710E-01   0.1342548426E+00   0.1465130100E-04  -0.3442180523E-04   0.2930260199E-04  -0.6884361045E-04   0.1226315187E+00   0.1623039574E-01   0.0000000000E+00   0.4008092800E-02
   0.2671648634E-01   0.1398978646E+00   0.1035654588E-04  -0.3622579273E-04   0.2071309175E-04  -0.7245158546E-04   0.1207031240E+00   0.1901433132E-01   0.0000000000E+00   0.3703936664E-02
   0.1786077584E-01   0.1350026299E+00   0.7320812376E-05  -0.3697903503E-04   0.1464162475E-04  -0.7395807007E-04   0.1297750575E+00   0.2245271222E-01   0.0000000000E+00   0.1507450306E-02
   0.2711827569E-01   0.1293585719E+00   0.1177526167E-04  -0.3552035463E-04   0.2355052333E-04  -0.7104070927E-04   0.1301873377E+00   0.1890880089E-01   0.0000000000E+00   0.8120278565E-03
   0.3217849469E-01   0.2344543897E+00   0.6961195058E-05  -0.4139177832E-04   0.1392239012E-04  -0.8278355665E-04   0.6731003601E-01   0.6548508820E-03   0.0000000000E+00   0.3564163771E-02
   0.1945470217E-01   0.2498700873E+00   0.3419022966E-05  -0.4330422014E-04   0.6838045932E-05  -0.8660844028E-04   0.5418968071E-01  -0.2785770243E-03   0.0000000000E+00   0.3203091675E-03
   0.2581634012E-01   0.2421619852E+00   0.5103673708E-05  -0.4242994809E-04   0.1020734742E-04  -0.8485989618E-04   0.6118613045E-01   0.2809117417E-03   0.0000000000E+00   0.1701398316E-02
   0.1849280913E-01   0.2371402768E+00   0.3850276785E-05  -0.4261439114E-04   0.7700553570E-05  -0.8522878228E-04   0.6309441539E-01   0.6153306751E-03   0.0000000000E+00   0.1770089826E-02
   0.2485462389E-01   0.2294322804E+00   0.5594529958E-05  -0.4170487975E-04   0.1118905992E-04  -0.8340975951E-04   0.6913358730E-01   0.1375848535E-02   0.0000000000E+00   0.3335612825E-02
   0.6455751704E-01   0.8607425993E-01   0.4416271243E-04  -0.2387262400E-04   0.8832542485E-04  -0.4774524800E-04   0.8345004883E-01   0.2002758573E-01   0.0000000000E+00  -0.3827979714E-01
   0.6455525623E-01   0.9540018683E-01   0.3872517564E-04  -0.2430049076E-04   0.7745035127E-04  -0.4860098151E-04   0.1030964577E+00   0.8913389070E-02   0.0000000000E+00  -0.2534990252E-01
   0.1291311718E+00   0.2146138654E-01   0.7668259242E-04  -0.1712287344E-05   0.1533651848E-03  -0.3424574688E-05   0.3883746246E-02  -0.2126555944E-01   0.0000000000E+00  -0.9470595554E-02
   0.1137185909E+00   0.2047879675E-01   0.7625629050E-04  -0.2993715580E-05   0.1525125810E-03  -0.5987431161E-05  -0.1036892077E-02  -0.4235024115E-01   0.0000000000E+00  -0.1447906492E-02
   0.1251002673E+00   0.1073019242E-01   0.7767877683E-04  -0.1023094617E-05   0.1553575537E-03  -0.2046189234E-05  -0.7001789056E-04  -0.2642442367E-01   0.0000000000E+00  -0.5338637962E-02
   0.3294581792E+00   0.0000000000E+00   0.9716605927E-04   0.0000000000E+00   0.1943321185E-03   0.0000000000E+00   0.4454059372E-01   0.1335138033E-01   0.0000000000E+00  -0.2378332066E-04
   0.3502999940E+00   0.0000000000E+00   0.1000000000E-03   0.0000000000E+00   0.2000000000E-03   0.0000000000E+00   0.4495934909E-01   0.1339714584E-01   0.0000000000E+00   0.1604891994E-04
   0.3502999940E+00   0.1923073045E-01   0.1000000000E-03  -0.1314891941E-07   0.2000000000E-03  -0.2629783881E-07   0.4538246646E-01   0.1321354752E-01   0.0000000000E+00  -0.1304533493E-04
   0.3398790786E+00   0.0000000000E+00   0.9858052543E-04   0.0000000000E+00   0.1971610509E-03   0.0000000000E+00   0.4486268999E-01   0.1337005058E-01   0.0000000000E+00  -0.7428607653E-04
   0.3502999940E+00   0.9615370812E-02   0.1000000000E-03  -0.4719207096E-08   0.2000000000E-03  -0.9438414193E-08   0.4508612085E-01   0.1333099298E-01   0.0000000000E+00   0.1219838644E-04
   0.3398790619E+00   0.9615372738E-02   0.9857497922E-04  -0.4077457418E-08   0.1971499584E-03  -0.8154914835E-08   0.4493645024E-01   0.1330432654E-01   0.0000000000E+00  -0.7721427061E-04
   0.3317214798E+00   0.2617160994E-01   0.9740227824E-04  -0.3035177839E-07   0.1948045565E-03  -0.6070355678E-07   0.4567407081E-01   0.1293583445E-01   0.0000000000E+00  -0.6056561983E-03
   0.3502999940E+00   0.3846130790E-01   0.1000000000E-03  -0.7733431251E-07   0.2000000000E-03  -0.1546686250E-06   0.4701213170E-01   0.1254320665E-01   0.0000000000E+00  -0.1461413427E-04
   0.3410107567E+00   0.2270117367E-01   0.9870789724E-04  -0.2061067728E-07   0.1974157945E-03  -0.4122135456E-07   0.4557407408E-01   0.1306337478E-01   0.0000000000E+00  -0.3126687543E-03
   0.3502999940E+00   0.2884604629E-01   0.1000000000E-03  -0.3653567854E-07   0.2000000000E-03  -0.7307135709E-07   0.4624491023E-01   0.1286759325E-01   0.0000000000E+00   0.9936684879E-05
   0.3410106777E+00   0.3231647342E-01   0.9868156328E-04  -0.4932552727E-07   0.1973631266E-03  -0.9865105453E-07   0.4631970094E-01   0.1272815861E-01   0.0000000000E+00  -0.3139530633E-03
   0.3160637624E+00   0.7695386492E-01   0.9431480162E-04  -0.5689594611E-06   0.1886296032E-03  -0.1137918922E-05   0.5263190147E-01   0.9737442378E-02   0.0000000000E+00  -0.2574843850E-02
   0.3330200858E+00   0.6720828506E-01   0.9724328171E-04  -0.3692467969E-06   0.1944865634E-03  -0.7384935937E-06   0.5102797242E-01   0.1076100358E-01   0.0000000000E+00  -0.1199832226E-02
   0.3333759342E+00   0.8655523446E-01   0.9706738374E-04  -0.7452787070E-06   0.1941347675E-03  -0.1490557414E-05   0.5476406243E-01   0.9317293293E-02   0.0000000000E+00  -0.1327961127E-02
   0.3245419988E+00   0.7208110353E-01   0.9580891952E-04  -0.4595909473E-06   0.1916178390E-03  -0.9191818947E-06   0.5180502186E-01   0.1024670532E-01   0.0000000000E+00  -0.1884663957E-02
   0.3331980207E+00   0.7688182542E-01   0.9715888874E-04  -0.5365929810E-06   0.1943177775E-03  -0.1073185962E-05   0.5289360919E-01   0.1002752798E-01   0.0000000000E+00  -0.1269806084E-02
   0.3247197723E+00   0.8175456513E-01   0.9566075723E-04  -0.6507249922E-06   0.1913215145E-03  -0.1301449984E-05   0.5372612348E-01   0.9542193485E-02   0.0000000000E+00  -0.1940285802E-02
   0.3116987527E+00   0.3581669295E-01   0.9449924763E-04  -0.7538445219E-07   0.1889984953E-03  -0.1507689044E-06   0.4594218426E-01   0.1225875997E-01   0.0000000000E+00  -0.1686008072E-02
   0.3160591154E+00   0.1595494419E-01   0.9530880920E-04  -0.1153729771E-07   0.1906176184E-03  -0.2307459541E-07   0.4452130762E-01   0.1298750164E-01   0.0000000000E+00  -0.6868161403E-03
   0.3138790123E+00   0.2588584679E-01   0.9493010046E-04  -0.3403631668E-07   0.1898602009E-03  -0.6807263336E-07   0.4520541048E-01   0.1262143331E-01   0.0000000000E+00  -0.1159772728E-02
   0.3238902886E+00   0.2106328040E-01   0.9634754561E-04  -0.1953300950E-07   0.1926950912E-03  -0.3906601900E-07   0.4511244665E-01   0.1295190144E-01   0.0000000000E+00  -0.6452654089E-03
   0.3217101785E+00   0.3099416471E-01   0.9596648792E-04  -0.4876327513E-07   0.1919329758E-03  -0.9752655027E-07   0.4581303073E-01   0.1259765189E-01   0.0000000000E+00  -0.1134307145E-02
   0.2778708245E+00   0.1796166644E-01   0.9022849074E-04  -0.2842026370E-07   0.1804569815E-03  -0.5684052740E-07   0.4205213701E-01   0.1191528457E-01   0.0000000000E+00  -0.1768028450E-02
   0.2669337123E+00   0.0000000000E+00   0.8901041680E-04   0.0000000000E+00   0.1780208336E-03   0.0000000000E+00   0.4021876905E-01   0.1173111427E-01   0.0000000000E+00   0.1953078273E-06
   0.2877748943E+00   0.0000000000E+00   0.9163344448E-04   0.0000000000E+00   0.1832668890E-03   0.0000000000E+00   0.4232937347E-01   0.1251437630E-01   0.0000000000E+00   0.3648776740E-05
   0.2724023509E+00   0.8980838936E-02   0.8964698099E-04  -0.1229788631E-07   0.1792939620E-03  -0.2459577262E-07   0.4102378112E-01   0.1178712400E-01   0.0000000000E+00  -0.9537985785E-03
   0.2773542548E+00   0.0000000000E+00   0.9030593725E-04   0.0000000000E+00   0.1806118745E-03   0.0000000000E+00   0.4149445780E-01   0.1218648986E-01   0.0000000000E+00  -0.6762208537E-05
   0.2828229656E+00   0.8980846767E-02   0.9096620899E-04  -0.9687633910E-08   0.1819324180E-03  -0.1937526782E-07   0.4209042972E-01   0.1219608513E-01   0.0000000000E+00  -0.8224802784E-03
   0.2357407339E+00   0.1793970355E-01   0.8511964254E-04  -0.6641629986E-07   0.1702392851E-03  -0.1328325997E-06   0.3651528327E-01   0.9517001272E-02   0.0000000000E+00  -0.3231605893E-02
   0.2460929547E+00   0.0000000000E+00   0.8653923463E-04   0.0000000000E+00   0.1730784693E-03   0.0000000000E+00   0.3732501926E-01   0.1061303047E-01   0.0000000000E+00  -0.8268920792E-06
   0.2567718800E+00   0.1802018924E-01   0.8758500450E-04  -0.4318676862E-07   0.1751700090E-03  -0.8637353724E-07   0.3969023066E-01   0.1091914580E-01   0.0000000000E+00  -0.2442806239E-02
   0.2409170355E+00   0.8969876391E-02   0.8589317681E-04  -0.2500975972E-07   0.1717863536E-03  -0.5001951943E-07   0.3677319994E-01   0.1003980421E-01   0.0000000000E+00  -0.1523347694E-02
   0.2514325357E+00   0.9010099911E-02   0.8710158058E-04  -0.1983296484E-07   0.1742031612E-03  -0.3966592968E-07   0.3837091415E-01   0.1072076705E-01   0.0000000000E+00  -0.1305436500E-02
   0.2462562356E+00   0.1797994938E-01   0.8632852443E-04  -0.5350553413E-07   0.1726570489E-03  -0.1070110683E-06   0.3838371265E-01   0.1029804330E-01   0.0000000000E+00  -0.2828556980E-02
   0.2991706949E+00   0.8661739738E-01   0.9114295194E-04  -0.8561064776E-06   0.1822859039E-03  -0.1712212955E-05   0.5443341289E-01   0.8411295635E-02   0.0000000000E+00  -0.4068999425E-02
   0.3164420050E+00   0.9621625982E-01   0.9387466700E-04  -0.1046094996E-05   0.1877493340E-03  -0.2092189992E-05   0.5676281624E-01   0.8209081857E-02   0.0000000000E+00  -0.2743303589E-02
   0.2995573072E+00   0.1058805503E+00   0.9040339385E-04  -0.1458248810E-05   0.1808067877E-03  -0.2916497620E-05   0.5899364961E-01   0.6829831913E-02   0.0000000000E+00  -0.4158401714E-02
   0.3078062536E+00   0.9141684726E-01   0.9247652098E-04  -0.9448796532E-06   0.1849530420E-03  -0.1889759306E-05   0.5564237941E-01   0.8334731755E-02   0.0000000000E+00  -0.3389552384E-02
   0.3079997547E+00   0.1010484569E+00   0.9217689463E-04  -0.1236039236E-05   0.1843537893E-03  -0.2472078471E-05   0.5784918566E-01   0.7526326252E-02   0.0000000000E+00  -0.3453181001E-02
   0.2993640380E+00   0.9624904055E-01   0.9078034639E-04  -0.1133616846E-05   0.1815606928E-03  -0.2267233691E-05   0.5670392003E-01   0.7585901035E-02   0.0000000000E+00  -0.4132815612E-02
   0.1938610521E+00   0.1783101102E-01   0.8091804938E-04  -0.1762273536E-06   0.1618360988E-03  -0.3524547072E-06   0.2708349780E-01   0.4685785523E-02   0.0000000000E+00  -0.5376222841E-02
   0.2044134654E+00   0.0000000000E+00   0.8226648303E-04   0.0000000000E+00   0.1645329661E-03   0.0000000000E+00   0.2847284948E-01   0.6782928988E-02   0.0000000000E+00  -0.9050183868E-05
   0.2148138620E+00   0.1790975174E-01   0.8288166511E-04  -0.1057213523E-06   0.1657633302E-03  -0.2114427046E-06   0.3239312688E-01   0.7545328084E-02   0.0000000000E+00  -0.4202845437E-02
   0.1991375810E+00   0.8915561237E-02   0.8170233440E-04  -0.6954432352E-07   0.1634046688E-03  -0.1390886470E-06   0.2752849184E-01   0.5686353347E-02   0.0000000000E+00  -0.2531110756E-02
   0.2096138686E+00   0.8954874639E-02   0.8264488187E-04  -0.5326370578E-07   0.1652897637E-03  -0.1065274116E-06   0.3021440368E-01   0.7095241713E-02   0.0000000000E+00  -0.2236588180E-02
   0.2043373429E+00   0.1787039710E-01   0.8186164678E-04  -0.1357346971E-06   0.1637232936E-03  -0.2714693941E-06   0.3017798866E-01   0.6236442487E-02   0.0000000000E+00  -0.4771916171E-02
   0.1323139531E+00   0.4107101087E-01   0.7316504833E-04  -0.2934877938E-05   0.1463300967E-03  -0.5869755876E-05   0.1862851037E-01  -0.1735710415E-01   0.0000000000E+00  -0.1683674263E-01
   0.1252887083E+00   0.5989003252E-01   0.6725342818E-04  -0.5379092626E-05   0.1345068564E-03  -0.1075818525E-04   0.3545655783E-01  -0.1884014700E-01   0.0000000000E+00  -0.2090074672E-01
   0.1132135014E+00   0.3921512575E-01   0.7224811750E-04  -0.5309582513E-05   0.1444962350E-03  -0.1061916503E-04   0.9184806016E-02  -0.2778276916E-01   0.0000000000E+00  -0.1087070796E-01
   0.1288020652E+00   0.5048078340E-01   0.7045407154E-04  -0.4070365614E-05   0.1409081431E-03  -0.8140731229E-05   0.2643867605E-01  -0.1869889384E-01   0.0000000000E+00  -0.1881397086E-01
   0.1192510650E+00   0.4955278964E-01   0.6973731688E-04  -0.5274152879E-05   0.1394746338E-03  -0.1054830576E-04   0.2284423727E-01  -0.2153188329E-01   0.0000000000E+00  -0.1604933417E-01
   0.1227635718E+00   0.4014377078E-01   0.7265491985E-04  -0.3887439072E-05   0.1453098397E-03  -0.7774878143E-05   0.1540677112E-01  -0.2297444681E-01   0.0000000000E+00  -0.1423779031E-01
   0.1729628959E+00   0.1762945550E-01   0.7930629297E-04  -0.3117679855E-06   0.1586125859E-03  -0.6235359709E-06   0.2036818569E-01   0.3349000943E-03   0.0000000000E+00  -0.6676324499E-02
   0.1835751232E+00   0.0000000000E+00   0.8059539520E-04   0.0000000000E+00   0.1611907904E-03   0.0000000000E+00   0.2203939219E-01   0.3381316846E-02   0.0000000000E+00  -0.3796721835E-04
   0.1782694313E+00   0.8814821295E-02   0.8009376276E-04  -0.1247050533E-06   0.1601875255E-03  -0.2494101066E-06   0.2087368313E-01   0.1770756711E-02   0.0000000000E+00  -0.3125796330E-02
   0.1887183676E+00   0.8915491065E-02   0.8085021185E-04  -0.9293495741E-07   0.1617004237E-03  -0.1858699148E-06   0.2428141377E-01   0.3949951122E-02   0.0000000000E+00  -0.2864008045E-02
   0.1834118271E+00   0.1773026920E-01   0.8006568896E-04  -0.2323334354E-06   0.1601313779E-03  -0.4646668708E-06   0.2427530622E-01   0.2651705980E-02   0.0000000000E+00  -0.6007670846E-02
   0.9260289546E-01   0.3823484284E-01   0.7164785215E-04  -0.1116658727E-04   0.1432957043E-03  -0.2233317454E-04  -0.6211784818E-02  -0.3837781996E-01   0.0000000000E+00   0.1333837653E-01
   0.1076139392E+00   0.4800989614E-01   0.6919206380E-04  -0.7397987473E-05   0.1383841276E-03  -0.1479597495E-04   0.1466875169E-01  -0.2717085609E-01   0.0000000000E+00  -0.1175909272E-01
   0.9730801384E-01   0.4751970880E-01   0.6868574776E-04  -0.1034053221E-04   0.1373714955E-03  -0.2068106442E-04   0.8588285951E-02  -0.2629940197E-01   0.0000000000E+00  -0.1714097608E-02
   0.1029078953E+00   0.3872681479E-01   0.7184811355E-04  -0.7627904457E-05   0.1436962271E-03  -0.1525580891E-04   0.3774521396E-02  -0.3225706425E-01   0.0000000000E+00  -0.6705009721E-03
   0.3308380625E+00   0.2499675121E+00   0.9416817111E-04  -0.1082928881E-04   0.1883363422E-03  -0.2165857762E-04   0.9018792962E-01  -0.3988956706E-04   0.0000000000E+00  -0.3015145910E-04
   0.3502999940E+00   0.2307420760E+00   0.1000000000E-03  -0.9052014470E-05   0.2000000000E-03  -0.1810402894E-04   0.8708636064E-01   0.2049251339E-03   0.0000000000E+00  -0.2304390800E-04
   0.3502999940E+00   0.2499677518E+00   0.1000000000E-03  -0.1074938552E-04   0.2000000000E-03  -0.2149877104E-04   0.8985289036E-01   0.1242507938E-04   0.0000000000E+00   0.7712660125E-05
   0.3405691791E+00   0.2403548751E+00   0.9712935285E-04  -0.9911308274E-05   0.1942587057E-03  -0.1982261655E-04   0.8866323331E-01   0.7602819246E-04   0.0000000000E+00  -0.7487738583E-04
   0.3502999940E+00   0.2403549299E+00   0.1000000000E-03  -0.9893028741E-05   0.2000000000E-03  -0.1978605748E-04   0.8857438607E-01   0.7825782400E-04   0.0000000000E+00  -0.8171794973E-05
   0.3405690491E+00   0.2499676919E+00   0.9708601937E-04  -0.1076937579E-04   0.1941720387E-03  -0.2153875159E-04   0.8993626634E-01  -0.1739019883E-04   0.0000000000E+00  -0.4522935675E-04
   0.3243401893E+00   0.2323309793E+00   0.9244510249E-04  -0.9322559087E-05   0.1848902050E-03  -0.1864511817E-04   0.8766766262E-01   0.1629557565E-03   0.0000000000E+00  -0.5433248485E-03
   0.3113760331E+00   0.2499667908E+00   0.8830371631E-04  -0.1106974651E-04   0.1766074326E-03  -0.2213949302E-04   0.9092510602E-01  -0.3225441664E-04   0.0000000000E+00  -0.2846753669E-04
   0.3275890454E+00   0.2411492653E+00   0.9328481278E-04  -0.1006691552E-04   0.1865696256E-03  -0.2013383104E-04   0.8898996253E-01   0.6487931984E-04   0.0000000000E+00  -0.2612149854E-03
   0.3211070502E+00   0.2499672175E+00   0.9124173317E-04  -0.1092749739E-04   0.1824834663E-03  -0.2185499478E-04   0.9042309093E-01  -0.5493819648E-04   0.0000000000E+00  -0.3808525791E-04
   0.3178581771E+00   0.2411489347E+00   0.9039637433E-04  -0.1017710278E-04   0.1807927487E-03  -0.2035420556E-04   0.8935157957E-01   0.7459377766E-04   0.0000000000E+00  -0.3132443977E-03
   0.2835653517E+00   0.1997028160E+00   0.8194956768E-04  -0.7360651932E-05   0.1638991354E-03  -0.1472130386E-04   0.8248521508E-01   0.7367760723E-03   0.0000000000E+00  -0.2740899711E-02
   0.2731934089E+00   0.2161376669E+00   0.7816797165E-04  -0.9048359474E-05   0.1563359433E-03  -0.1809671895E-04   0.8658919188E-01   0.2415243584E-03   0.0000000000E+00  -0.2209384338E-02
   0.2635628541E+00   0.1994607630E+00   0.7645170029E-04  -0.8005673337E-05   0.1529034006E-03  -0.1601134667E-04   0.8334156528E-01   0.2991579521E-03   0.0000000000E+00  -0.3172923017E-02
   0.2783794535E+00   0.2079203066E+00   0.8008316336E-04  -0.8182814052E-05   0.1601663267E-03  -0.1636562810E-04   0.8454602089E-01   0.4586595525E-03   0.0000000000E+00  -0.2482049940E-02
   0.2683780281E+00   0.2077992521E+00   0.7727035662E-04  -0.8514626822E-05   0.1545407132E-03  -0.1702925364E-04   0.8499337907E-01   0.3213676726E-03   0.0000000000E+00  -0.2672251133E-02
   0.2735641414E+00   0.1995818787E+00   0.7920845045E-04  -0.7653439489E-05   0.1584169009E-03  -0.1530687898E-04   0.8288060863E-01   0.5077075645E-03   0.0000000000E+00  -0.2976114612E-02
   0.3158621754E+00   0.1923619172E+00   0.9092581009E-04  -0.6165275736E-05   0.1818516202E-03  -0.1233055147E-04   0.7984912580E-01   0.1502299684E-02   0.0000000000E+00  -0.1734894255E-02
   0.3333977150E+00   0.1825812505E+00   0.9568499948E-04  -0.5303158368E-05   0.1913699990E-03  -0.1060631674E-04   0.7736496998E-01   0.2169914973E-02   0.0000000000E+00  -0.9701389372E-03
   0.3334180439E+00   0.2016049655E+00   0.9543763742E-04  -0.6709502097E-05   0.1908752748E-03  -0.1341900419E-04   0.8158092224E-01   0.1199383838E-02   0.0000000000E+00  -0.7730528930E-03
   0.3246300527E+00   0.1874716526E+00   0.9334122367E-04  -0.5713785427E-05   0.1866824473E-03  -0.1142757085E-04   0.7860309215E-01   0.1852223173E-02   0.0000000000E+00  -0.1360379047E-02
   0.3334078565E+00   0.1920931690E+00   0.9555848523E-04  -0.5988672207E-05   0.1911169705E-03  -0.1197734441E-04   0.7946387513E-01   0.1655235815E-02   0.0000000000E+00  -0.8736031633E-03
   0.3246400040E+00   0.1969834920E+00   0.9315167752E-04  -0.6420662230E-05   0.1863033550E-03  -0.1284132446E-04   0.8072223180E-01   0.1367926340E-02   0.0000000000E+00  -0.1245527062E-02
   0.3334971333E+00   0.1633997449E+00   0.9598210722E-04  -0.4037046750E-05   0.1919642144E-03  -0.8074093499E-05   0.7284869125E-01   0.3353984464E-02   0.0000000000E+00  -0.1129593260E-02
   0.3502999940E+00   0.1730630935E+00   0.1000000000E-03  -0.4611494815E-05   0.2000000000E-03  -0.9222989630E-05   0.7507673130E-01   0.2800771869E-02   0.0000000000E+00  -0.3392814144E-05
   0.3334474204E+00   0.1729905585E+00   0.9583214574E-04  -0.4649841763E-05   0.1916642915E-03  -0.9299683527E-05   0.7509619050E-01   0.2728534517E-02   0.0000000000E+00  -0.1051727130E-02
   0.3418984604E+00   0.1682314640E+00   0.9795678736E-04  -0.4309323103E-05   0.1959135747E-03  -0.8618646207E-05   0.7397179886E-01   0.3095282380E-02   0.0000000000E+00  -0.5532256962E-03
   0.3418489562E+00   0.1778222224E+00   0.9787639324E-04  -0.4940519972E-05   0.1957527865E-03  -0.9881039944E-05   0.7622381713E-01   0.2501274915E-02   0.0000000000E+00  -0.4934601543E-03
   0.3502999940E+00   0.1538358648E+00   0.1000000000E-03  -0.3431725691E-05   0.2000000000E-03  -0.6863451382E-05   0.7047951337E-01   0.4097871921E-02   0.0000000000E+00  -0.3669421211E-05
   0.3418986696E+00   0.1586178443E+00   0.9802653965E-04  -0.3718553620E-05   0.1960530793E-03  -0.7437107240E-05   0.7166740114E-01   0.3742518641E-02   0.0000000000E+00  -0.5740645771E-03
   0.3502999940E+00   0.1634495354E+00   0.1000000000E-03  -0.4000197667E-05   0.2000000000E-03  -0.8000395334E-05   0.7276826091E-01   0.3415935699E-02   0.0000000000E+00  -0.1613377785E-05
   0.2679087761E+00   0.3629367025E-01   0.8846136649E-04  -0.1292514477E-06   0.1769227330E-03  -0.2585028955E-06   0.4308801139E-01   0.1065615722E-01   0.0000000000E+00  -0.3956582626E-02
   0.2623403766E+00   0.2715695361E-01   0.8803921269E-04  -0.7796430063E-07   0.1760784254E-03  -0.1559286013E-06   0.4127610160E-01   0.1073395022E-01   0.0000000000E+00  -0.3272353720E-02
   0.2673212839E+00   0.1799093119E-01   0.8888896095E-04  -0.3500478786E-07   0.1777779219E-03  -0.7000957573E-07   0.4109847091E-01   0.1148395427E-01   0.0000000000E+00  -0.2101715325E-02
   0.2728899426E+00   0.2712770900E-01   0.8939721453E-04  -0.6526832799E-07   0.1787944291E-03  -0.1305366560E-06   0.4248058613E-01   0.1128115147E-01   0.0000000000E+00  -0.2801792471E-02
   0.3166775059E+00   0.1346198245E+00   0.9280297873E-04  -0.2550514834E-05   0.1856059575E-03  -0.5101029668E-05   0.6597211886E-01   0.5129401783E-02   0.0000000000E+00  -0.2605971588E-02
   0.3166572639E+00   0.1154511514E+00   0.9336696440E-04  -0.1705534320E-05   0.1867339288E-03  -0.3411068640E-05   0.6127603580E-01   0.6640072476E-02   0.0000000000E+00  -0.2739894344E-02
   0.3335314611E+00   0.1250123777E+00   0.9655668865E-04  -0.2023443280E-05   0.1931133773E-03  -0.4046886560E-05   0.6352127687E-01   0.6201260825E-02   0.0000000000E+00  -0.1347474670E-02
   0.3166673895E+00   0.1250355578E+00   0.9308648983E-04  -0.2104718324E-05   0.1861729797E-03  -0.4209436648E-05   0.6361303484E-01   0.5847710496E-02   0.0000000000E+00  -0.2680918765E-02
   0.3250942755E+00   0.1202317936E+00   0.9492782813E-04  -0.1854796616E-05   0.1898556563E-03  -0.3709593233E-05   0.6242143290E-01   0.6443149368E-02   0.0000000000E+00  -0.2029026478E-02
   0.3251046115E+00   0.1298161569E+00   0.9471749821E-04  -0.2270709047E-05   0.1894349964E-03  -0.4541418094E-05   0.6473946911E-01   0.5679965566E-02   0.0000000000E+00  -0.1984583930E-02
   0.3502999940E+00   0.9615090764E-01   0.1000000000E-03  -0.9800850353E-06   0.2000000000E-03  -0.1960170071E-05   0.5684443061E-01   0.8659060712E-02   0.0000000000E+00  -0.5875528154E-05
   0.3334901602E+00   0.1057874013E+00   0.9682674815E-04  -0.1292234274E-05   0.1936534963E-03  -0.2584468549E-05   0.5898566435E-01   0.7765110705E-02   0.0000000000E+00  -0.1375674377E-02
   0.3418378694E+00   0.9135309605E-01   0.9850213167E-04  -0.8543483807E-06   0.1970042633E-03  -0.1708696761E-05   0.5581583964E-01   0.8999986620E-02   0.0000000000E+00  -0.6557712222E-03
   0.3418951637E+00   0.1009691874E+00   0.9844724330E-04  -0.1125216161E-05   0.1968944866E-03  -0.2250432322E-05   0.5791285788E-01   0.8222378958E-02   0.0000000000E+00  -0.6934235628E-03
   0.3334330701E+00   0.9617138571E-01   0.9694968961E-04  -0.9961645540E-06   0.1938993792E-03  -0.1992329108E-05   0.5686845346E-01   0.8519431531E-02   0.0000000000E+00  -0.1357151311E-02
   0.3502999940E+00   0.7692149734E-01   0.1000000000E-03  -0.5274858561E-06   0.2000000000E-03  -0.1054971712E-05   0.5289614591E-01   0.1016100606E-01   0.0000000000E+00  -0.6516446410E-05
   0.3416599549E+00   0.7206490753E-01   0.9859329525E-04  -0.4416892091E-06   0.1971865905E-03  -0.8833784182E-06   0.5197294758E-01   0.1046689853E-01   0.0000000000E+00  -0.5949810836E-03
   0.3418380557E+00   0.8173839241E-01   0.9856422281E-04  -0.6275306488E-06   0.1971284456E-03  -0.1255061298E-05   0.5382502698E-01   0.9743395970E-02   0.0000000000E+00  -0.6661379235E-03
   0.3321473826E+00   0.4723384423E-01   0.9731219647E-04  -0.1396894696E-06   0.1946243929E-03  -0.2793789392E-06   0.4791031693E-01   0.1200823396E-01   0.0000000000E+00  -0.9813865866E-03
   0.3502999940E+00   0.5769160001E-01   0.1000000000E-03  -0.2359975929E-06   0.2000000000E-03  -0.4719951857E-06   0.4955841931E-01   0.1149029787E-01   0.0000000000E+00  -0.8183295891E-05
   0.3412236124E+00   0.5246273872E-01   0.9863079952E-04  -0.1822940477E-06   0.1972615990E-03  -0.3645880955E-06   0.4873959359E-01   0.1174830260E-01   0.0000000000E+00  -0.4934173152E-03
   0.3416601164E+00   0.6244996052E-01   0.9864711898E-04  -0.2959925228E-06   0.1972942380E-03  -0.5919850457E-06   0.5028765521E-01   0.1112128852E-01   0.0000000000E+00  -0.5984395299E-03
   0.3325837476E+00   0.5722112099E-01   0.9728220542E-04  -0.2363037290E-06   0.1945644108E-03  -0.4726074581E-06   0.4946963854E-01   0.1138470432E-01   0.0000000000E+00  -0.1098941382E-02
   0.3412237412E+00   0.4284758810E-01   0.9867372981E-04  -0.1044991994E-06   0.1973474596E-03  -0.2089983988E-06   0.4746787413E-01   0.1226075452E-01   0.0000000000E+00  -0.4893290850E-03
   0.3319344573E+00   0.3670277034E-01   0.9736608823E-04  -0.7092158537E-07   0.1947321765E-03  -0.1418431707E-06   0.4679017951E-01   0.1248053500E-01   0.0000000000E+00  -0.7948569695E-03
   0.0000000000E+00   0.2498684118E+00   0.0000000000E+00  -0.4386272864E-04   0.0000000000E+00  -0.8772545729E-04   0.5198961681E-01  -0.1577774958E-04   0.0000000000E+00  -0.8187420605E-04
   0.9727310943E-02   0.2498688275E+00   0.1696124205E-05  -0.4372415114E-04   0.3392248410E-05  -0.8744830227E-04   0.5257158192E-01  -0.1501573159E-04   0.0000000000E+00   0.3401965602E-03
   0.0000000000E+00   0.2404949514E+00   0.0000000000E+00  -0.4334753236E-04   0.0000000000E+00  -0.8669506472E-04   0.5967237710E-01   0.4523387407E-03   0.0000000000E+00   0.2288940696E-04
   0.9728037491E-02   0.2404953955E+00   0.1938306896E-05  -0.4319949803E-04   0.3876613791E-05  -0.8639899606E-04   0.6041477930E-01   0.4024426698E-03   0.0000000000E+00   0.4750255413E-03
   0.3891003924E-01   0.2498750082E+00   0.7049646554E-05  -0.4166392637E-04   0.1409929311E-04  -0.8332785274E-04   0.5900019839E-01  -0.9183491892E-04   0.0000000000E+00   0.1964649015E-03
   0.4036456230E-01   0.2337112127E+00   0.8870766410E-05  -0.4047177866E-04   0.1774153282E-04  -0.8094355732E-04   0.6920961359E-01   0.4567174430E-03   0.0000000000E+00   0.4384182551E-02
   0.4373039302E-01   0.2414216174E+00   0.8935705616E-05  -0.4057854774E-04   0.1787141123E-04  -0.8115709547E-04   0.6548930068E-01   0.3246181350E-03   0.0000000000E+00   0.2589451276E-02
   0.3554458639E-01   0.2421646196E+00   0.7111895328E-05  -0.4155178637E-04   0.1422379066E-04  -0.8310357274E-04   0.6333971197E-01   0.1837395320E-03   0.0000000000E+00   0.1980478669E-02
   0.5557956006E-01   0.1230504330E+00   0.2468198533E-04  -0.2926934112E-04   0.4936397066E-04  -0.5853868223E-04   0.1191391462E+00   0.6173258561E-02   0.0000000000E+00  -0.1079648212E-02
   0.4634834017E-01   0.1176938430E+00   0.2245459016E-04  -0.3097398625E-04   0.4490918032E-04  -0.6194797250E-04   0.1283709796E+00   0.1102575048E-01   0.0000000000E+00  -0.8084232831E-02
   0.4639942247E-01   0.1070282420E+00   0.2621379123E-04  -0.3003199912E-04   0.5242758246E-04  -0.6006399824E-04   0.1361297358E+00   0.1674569147E-01   0.0000000000E+00  -0.2021026337E-01
   0.5562918070E-01   0.1123851421E+00   0.2795519858E-04  -0.2822161821E-04   0.5591039715E-04  -0.5644323641E-04   0.1188796064E+00   0.7191579905E-02   0.0000000000E+00  -0.1087325983E-01
   0.6786499345E-01   0.2328614478E+00   0.1559711600E-04  -0.3642238501E-04   0.3119423201E-04  -0.7284477001E-04   0.7622443453E-01   0.1169838783E-03   0.0000000000E+00   0.5959511823E-02
   0.5836659770E-01   0.2498825794E+00   0.1108803270E-04  -0.3914020307E-04   0.2217606540E-04  -0.7828040613E-04   0.6609489856E-01  -0.5876415217E-04   0.0000000000E+00   0.2808364821E-03
   0.6311586417E-01   0.2413718829E+00   0.1336605597E-04  -0.3782470592E-04   0.2673211195E-04  -0.7564941183E-04   0.7136055380E-01   0.1441993986E-03   0.0000000000E+00   0.3064337021E-02
   0.5345913154E-01   0.2414254934E+00   0.1110677916E-04  -0.3928653413E-04   0.2221355831E-04  -0.7857306826E-04   0.6877354199E-01   0.1281645260E-03   0.0000000000E+00   0.2783284444E-02
   0.5820778773E-01   0.2329147601E+00   0.1318137821E-04  -0.3798329940E-04   0.2636275641E-04  -0.7596659880E-04   0.7367283209E-01   0.2502932090E-03   0.0000000000E+00   0.5653803474E-02
   0.7782467627E-01   0.2498920134E+00   0.1563189166E-04  -0.3599554271E-04   0.3126378332E-04  -0.7199108541E-04   0.7422793174E-01   0.5809647675E-05   0.0000000000E+00   0.2819339663E-03
   0.8262815108E-01   0.2414095512E+00   0.1822586137E-04  -0.3450260176E-04   0.3645172275E-04  -0.6900520352E-04   0.7782743257E-01  -0.1332826970E-04   0.0000000000E+00   0.3051754572E-02
   0.7284520566E-01   0.2413767009E+00   0.1573811941E-04  -0.3621868341E-04   0.3147623882E-04  -0.7243736681E-04   0.7510212256E-01  -0.4137308840E-04   0.0000000000E+00   0.3106338645E-02
   0.7764803752E-01   0.2328942365E+00   0.1811777370E-04  -0.3472649132E-04   0.3623554741E-04  -0.6945298265E-04   0.7876838195E-01  -0.4507654331E-04   0.0000000000E+00   0.5956524099E-02
   0.1264721440E+00   0.2330518093E+00   0.3188799267E-04  -0.2571857825E-04   0.6377598533E-04  -0.5143715649E-04   0.8973962376E-01  -0.5474991336E-03   0.0000000000E+00   0.3763055501E-02
   0.1167454605E+00   0.2499130632E+00   0.2626450807E-04  -0.2897894413E-04   0.5252901614E-04  -0.5795788826E-04   0.8894474710E-01   0.9465002450E-04   0.0000000000E+00   0.1774378737E-03
   0.1216090024E+00   0.2414824234E+00   0.2914181525E-04  -0.2735285827E-04   0.5828363051E-04  -0.5470571655E-04   0.8922664704E-01  -0.2065486674E-03   0.0000000000E+00   0.2046867204E-02
   0.1118670905E+00   0.2414730261E+00   0.2627750282E-04  -0.2912461840E-04   0.5255500564E-04  -0.5824923681E-04   0.8719350055E-01  -0.2496120108E-03   0.0000000000E+00   0.2490487707E-02
   0.1167301538E+00   0.2330424335E+00   0.2899760426E-04  -0.2748284362E-04   0.5799520852E-04  -0.5496568724E-04   0.8809943688E-01  -0.3968214706E-03   0.0000000000E+00   0.4393749703E-02
   0.1362077469E+00   0.2499232288E+00   0.3221229971E-04  -0.2559038840E-04   0.6442459942E-04  -0.5118077681E-04   0.9406679770E-01   0.1057841968E-03   0.0000000000E+00   0.1115052757E-03
   0.1410738794E+00   0.2414872325E+00   0.3507612316E-04  -0.2399149900E-04   0.7015224633E-04  -0.4798299800E-04   0.9308164877E-01  -0.2295100057E-03   0.0000000000E+00   0.1357088035E-02
   0.1313400282E+00   0.2414875703E+00   0.3207773534E-04  -0.2563721896E-04   0.6415547068E-04  -0.5127443792E-04   0.9164997524E-01  -0.2694673925E-03   0.0000000000E+00   0.1844309248E-02
   0.1362058256E+00   0.2330516292E+00   0.3483019890E-04  -0.2402025614E-04   0.6966039780E-04  -0.4804051227E-04   0.9136204635E-01  -0.4363352327E-03   0.0000000000E+00   0.3100801900E-02
   0.1361978452E+00   0.2161636399E+00   0.3714706079E-04  -0.2241970560E-04   0.7429412159E-04  -0.4483941120E-04   0.9008222851E-01  -0.2083719110E-02   0.0000000000E+00   0.4760661687E-02
   0.1410687912E+00   0.2246074417E+00   0.3749305966E-04  -0.2240510305E-04   0.7498611933E-04  -0.4481020610E-04   0.9111874840E-01  -0.1341752389E-02   0.0000000000E+00   0.3518855034E-02
   0.1313350793E+00   0.2246077130E+00   0.3454576472E-04  -0.2407299477E-04   0.6909152943E-04  -0.4814598955E-04   0.8979609572E-01  -0.1326290103E-02   0.0000000000E+00   0.4334010865E-02
   0.1848717411E+00   0.2330503099E+00   0.5000102433E-04  -0.1696469990E-04   0.1000020487E-03  -0.3392939981E-04   0.9443823783E-01  -0.3700295381E-03   0.0000000000E+00   0.1520176379E-03
   0.1751344308E+00   0.2499405973E+00   0.4481128249E-04  -0.1980089288E-04   0.8962256499E-04  -0.3960178575E-04   0.9897750184E-01   0.8319604384E-04   0.0000000000E+00   0.7876198039E-05
   0.1800032089E+00   0.2414955053E+00   0.4744964598E-04  -0.1836324651E-04   0.9489929195E-04  -0.3672649301E-04   0.9656500466E-01  -0.1780183947E-03   0.0000000000E+00   0.1484019840E-03
   0.1702696532E+00   0.2414946120E+00   0.4432105516E-04  -0.1961465816E-04   0.8864211033E-04  -0.3922931631E-04   0.9628548414E-01  -0.2023365648E-03   0.0000000000E+00   0.5249245873E-03
   0.1751383748E+00   0.2330495639E+00   0.4693558535E-04  -0.1816202669E-04   0.9387117070E-04  -0.3632405339E-04   0.9442187717E-01  -0.3350885669E-03   0.0000000000E+00   0.6496288081E-03
   0.2043385027E+00   0.2330597229E+00   0.5612657179E-04  -0.1489503433E-04   0.1122531436E-03  -0.2979006866E-04   0.9414954947E-01  -0.2516315619E-03   0.0000000000E+00  -0.6034129473E-03
   0.1945981853E+00   0.2499474503E+00   0.5124577185E-04  -0.1751657807E-04   0.1024915437E-03  -0.3503315614E-04   0.9920798414E-01   0.6145751343E-04   0.0000000000E+00  -0.2248344825E-04
   0.1994684507E+00   0.2415036526E+00   0.5371922134E-04  -0.1618380794E-04   0.1074384427E-03  -0.3236761587E-04   0.9656544816E-01  -0.1305919044E-03   0.0000000000E+00  -0.2621606568E-03
   0.1897348478E+00   0.2414989333E+00   0.5058494584E-04  -0.1722055244E-04   0.1011698917E-03  -0.3444110488E-04   0.9671124184E-01  -0.1461200438E-03   0.0000000000E+00   0.1367684631E-04
   0.1946051384E+00   0.2330551694E+00   0.5306678679E-04  -0.1587621340E-04   0.1061335736E-03  -0.3175242680E-04   0.9447462315E-01  -0.2447608014E-03   0.0000000000E+00  -0.2462288951E-03
   0.2238041081E+00   0.2330765346E+00   0.6220971045E-04  -0.1323481591E-04   0.1244194209E-03  -0.2646963182E-04   0.9330543255E-01  -0.1406165136E-03   0.0000000000E+00  -0.1078887498E-02
   0.2140618611E+00   0.2499530719E+00   0.5765904208E-04  -0.1564270311E-04   0.1153180842E-03  -0.3128540621E-04   0.9843564723E-01   0.3896766243E-04   0.0000000000E+00  -0.3960736263E-04
   0.2189330641E+00   0.2415148711E+00   0.5995836130E-04  -0.1441628840E-04   0.1199167226E-03  -0.2883257680E-04   0.9579140547E-01  -0.8237273303E-04   0.0000000000E+00  -0.5267399044E-03
   0.2092000330E+00   0.2415064525E+00   0.5684565028E-04  -0.1525051596E-04   0.1136913006E-03  -0.3050103193E-04   0.9623159124E-01  -0.9025930126E-04   0.0000000000E+00  -0.3532551288E-03
   0.2140713277E+00   0.2330682757E+00   0.5917558036E-04  -0.1401611052E-04   0.1183511607E-03  -0.2803222104E-04   0.9384560671E-01  -0.1539028326E-03   0.0000000000E+00  -0.8610577621E-03
   0.2432836913E+00   0.2330914367E+00   0.6822809089E-04  -0.1193809050E-04   0.1364561818E-03  -0.2387618100E-04   0.9213997516E-01  -0.4640683074E-04   0.0000000000E+00  -0.1303376889E-02
   0.2335253295E+00   0.2499575565E+00   0.6399848864E-04  -0.1414784247E-04   0.1279969773E-03  -0.2829568494E-04   0.9703718350E-01   0.1837489812E-04   0.0000000000E+00  -0.4633448130E-04
   0.2384045693E+00   0.2415245540E+00   0.6613042450E-04  -0.1302134892E-04   0.1322608490E-03  -0.2604269783E-04   0.9454301967E-01  -0.3901746873E-04   0.0000000000E+00  -0.6589151321E-03
   0.2286645682E+00   0.2415170948E+00   0.6305372712E-04  -0.1367506398E-04   0.1261074542E-03  -0.2735012796E-04   0.9515258640E-01  -0.4099622000E-04   0.0000000000E+00  -0.5771079092E-03
   0.2335439366E+00   0.2330841215E+00   0.6522887028E-04  -0.1254383489E-04   0.1304577406E-03  -0.2508766978E-04   0.9278188663E-01  -0.7322636146E-04   0.0000000000E+00  -0.1208515657E-02
   0.2629261899E+00   0.2330307832E+00   0.7421729943E-04  -0.1094161574E-04   0.1484345989E-03  -0.2188323148E-04   0.9083691946E-01   0.2900393292E-04   0.0000000000E+00  -0.1324843014E-02
   0.2529884895E+00   0.2499610352E+00   0.7023481993E-04  -0.1298825130E-04   0.1404696399E-03  -0.2597650260E-04   0.9534594588E-01   0.7542667968E-06   0.0000000000E+00  -0.4580868002E-04
   0.2579573940E+00   0.2414959703E+00   0.7223934237E-04  -0.1194456678E-04   0.1444786847E-03  -0.2388913355E-04   0.9307559672E-01  -0.2612554170E-05   0.0000000000E+00  -0.6833707449E-03
   0.2481359422E+00   0.2415262711E+00   0.6918205093E-04  -0.1244896986E-04   0.1383641019E-03  -0.2489793972E-04   0.9375671228E-01  -0.1008999554E-05   0.0000000000E+00  -0.6748529231E-03
   0.2531049737E+00   0.2330612276E+00   0.7123390503E-04  -0.1140314663E-04   0.1424678101E-03  -0.2280629326E-04   0.9149667027E-01  -0.7506821614E-05   0.0000000000E+00  -0.1328347239E-02
   0.2828172783E+00   0.2328342449E+00   0.8019942676E-04  -0.1019404027E-04   0.1603988535E-03  -0.2038808054E-04   0.8956006159E-01   0.8860635396E-04   0.0000000000E+00  -0.1188079184E-02
   0.2724512965E+00   0.2499636493E+00   0.7635849650E-04  -0.1211691208E-04   0.1527169930E-03  -0.2423382415E-04   0.9363473312E-01  -0.1379401027E-04   0.0000000000E+00  -0.4143597089E-04
   0.2776343255E+00   0.2413990043E+00   0.7829148909E-04  -0.1113623745E-04   0.1565829782E-03  -0.2227247490E-04   0.9160582865E-01   0.2754941224E-04   0.0000000000E+00  -0.6241963006E-03
   0.2676886063E+00   0.2414972531E+00   0.7524241940E-04  -0.1151695311E-04   0.1504848388E-03  -0.2303390622E-04   0.9227236185E-01   0.2916707180E-04   0.0000000000E+00  -0.6723408828E-03
   0.2728717679E+00   0.2329326086E+00   0.7721962801E-04  -0.1053646667E-04   0.1544392560E-03  -0.2107293333E-04   0.9016508235E-01   0.4453581990E-04   0.0000000000E+00  -0.1267643272E-02
   0.3032160987E+00   0.2323181426E+00   0.8625755327E-04  -0.9637814924E-05   0.1725151065E-03  -0.1927562985E-04   0.8841640789E-01   0.1369104941E-03   0.0000000000E+00  -0.9332161482E-03
   0.2919137837E+00   0.2499655307E+00   0.8237555165E-04  -0.1148977107E-04   0.1647511033E-03  -0.2297954214E-04   0.9211107188E-01  -0.2621520759E-04   0.0000000000E+00  -0.3621505033E-04
   0.2975649871E+00   0.2411419018E+00   0.8433203142E-04  -0.1054474260E-04   0.1686640628E-03  -0.2108948520E-04   0.9029245253E-01   0.5516028652E-04   0.0000000000E+00  -0.5035672702E-03
   0.2873653973E+00   0.2413999198E+00   0.8124777936E-04  -0.1083105786E-04   0.1624955587E-03  -0.2166211572E-04   0.9088885183E-01   0.4983247624E-04   0.0000000000E+00  -0.5929732381E-03
   0.2930167061E+00   0.2325762688E+00   0.8323935349E-04  -0.9888415212E-05   0.1664787070E-03  -0.1977683042E-04   0.8891871646E-01   0.8808156993E-04   0.0000000000E+00  -0.1069963534E-02
   0.3072959678E+00   0.2411425046E+00   0.8724794342E-04  -0.1034381112E-04   0.1744958868E-03  -0.2068762224E-04   0.8972981348E-01   0.6537161042E-04   0.0000000000E+00  -0.4552209367E-03
   0.3137781639E+00   0.2323246361E+00   0.8935796490E-04  -0.9455301815E-05   0.1787159298E-03  -0.1891060363E-04   0.8796619393E-01   0.1166989392E-03   0.0000000000E+00  -0.7454195396E-03
   0.6358960410E-01   0.7722791917E-01   0.5009073418E-04  -0.2437617563E-04   0.1001814684E-03  -0.4875235127E-04   0.5821669551E-01   0.3451307339E-01   0.0000000000E+00  -0.4362586487E-01
   0.7748267304E-01   0.6338131485E-01   0.6054177896E-04  -0.1933901623E-04   0.1210835579E-03  -0.3867803246E-04   0.1325848107E-01   0.1319756520E-01   0.0000000000E+00  -0.1384922433E-01
   0.8839781552E-01   0.4709786896E-01   0.6856263840E-04  -0.1393514769E-04   0.1371252768E-03  -0.2787029539E-04  -0.6067384396E-02  -0.2425645990E-01   0.0000000000E+00   0.9777362160E-02
   0.1654229973E+00   0.1646570556E+00   0.5281676440E-04  -0.1251712547E-04   0.1056335288E-03  -0.2503425093E-04   0.8476832765E-01  -0.7717221028E-02   0.0000000000E+00  -0.2118890501E-02
   0.1555087544E+00   0.1821997012E+00   0.4742480703E-04  -0.1580526411E-04   0.9484961407E-04  -0.3161052822E-04   0.8803889872E-01  -0.6188228678E-02   0.0000000000E+00   0.1383703135E-02
   0.1453779737E+00   0.1647765140E+00   0.4686758041E-04  -0.1536466365E-04   0.9373516081E-04  -0.3072932730E-04   0.8800862752E-01  -0.9219068636E-02   0.0000000000E+00   0.5394891180E-03
   0.1604658424E+00   0.1734284336E+00   0.5010946562E-04  -0.1414047147E-04   0.1002189312E-03  -0.2828094294E-04   0.8642559754E-01  -0.7029193039E-02   0.0000000000E+00  -0.3761237169E-03
   0.1504432790E+00   0.1734880835E+00   0.4711532751E-04  -0.1559550531E-04   0.9423065501E-04  -0.3119101061E-04   0.8809067908E-01  -0.7588119033E-02   0.0000000000E+00   0.1011792319E-02
   0.1554005862E+00   0.1647169990E+00   0.4987307076E-04  -0.1386967953E-04   0.9974614152E-04  -0.2773935905E-04   0.8622621636E-01  -0.8515894255E-02   0.0000000000E+00  -0.8459208749E-03
   0.2252528071E+00   0.0000000000E+00   0.8427104197E-04   0.0000000000E+00   0.1685420839E-03   0.0000000000E+00   0.3348278280E-01   0.9039318005E-02   0.0000000000E+00  -0.1777699584E-05
   0.2148330327E+00   0.0000000000E+00   0.8323190857E-04   0.0000000000E+00   0.1664638171E-03   0.0000000000E+00   0.3140343151E-01   0.8029538492E-02   0.0000000000E+00  -0.1271300587E-04
   0.2200335869E+00   0.8954911561E-02   0.8366030187E-04  -0.4095621874E-07   0.1673206037E-03  -0.8191243748E-07   0.3274939224E-01   0.8260440119E-02   0.0000000000E+00  -0.1982671269E-02
   0.2304969298E+00   0.8969855322E-02   0.8474861239E-04  -0.3203254686E-07   0.1694972248E-03  -0.6406509373E-07   0.3482844498E-01   0.9222347470E-02   0.0000000000E+00  -0.1720270199E-02
   0.2356727952E+00   0.0000000000E+00   0.8537641284E-04   0.0000000000E+00   0.1707528257E-03   0.0000000000E+00   0.3573961078E-01   0.9921015372E-02   0.0000000000E+00  -0.9739839266E-05
   0.9591594829E-01   0.2900334845E-01   0.7397099557E-04  -0.8373118130E-05   0.1479419911E-03  -0.1674623626E-04  -0.8281493296E-02  -0.6296441998E-01   0.0000000000E+00   0.1727938603E-01
   0.1057606516E+00   0.2935313981E-01   0.7433785015E-04  -0.5634530888E-05   0.1486757003E-03  -0.1126906178E-04   0.1947754069E-02  -0.4307924425E-01   0.0000000000E+00   0.1252759444E-03
   0.1616387406E+00   0.7204477218E-01   0.6969886719E-04  -0.3169873530E-05   0.1393977344E-03  -0.6339747061E-05   0.4730838778E-01  -0.9239959608E-02   0.0000000000E+00  -0.1853994662E-01
   0.1832648045E+00   0.7144313777E-01   0.7334282278E-04  -0.2119375308E-05   0.1466856456E-03  -0.4238750616E-05   0.4688250200E-01  -0.3730897180E-02   0.0000000000E+00  -0.1575338861E-01
   0.1727555329E+00   0.9033099160E-01   0.6792729353E-04  -0.3999834427E-05   0.1358545871E-03  -0.7999668854E-05   0.5778476732E-01  -0.8319630914E-02   0.0000000000E+00  -0.1598851729E-01
   0.1724518433E+00   0.7174414854E-01   0.7154208393E-04  -0.2581353691E-05   0.1430841679E-03  -0.5162707381E-05   0.4693868077E-01  -0.6492802721E-02   0.0000000000E+00  -0.1717078365E-01
   0.1780105346E+00   0.8088735201E-01   0.7075453297E-04  -0.2963829285E-05   0.1415090659E-03  -0.5927658569E-05   0.5244052921E-01  -0.6089980017E-02   0.0000000000E+00  -0.1591770831E-01
   0.1671968599E+00   0.8118791833E-01   0.6872095718E-04  -0.3571456280E-05   0.1374419144E-03  -0.7142912561E-05   0.5277130141E-01  -0.8686405930E-02   0.0000000000E+00  -0.1718536677E-01
   0.1740247151E-01   0.2039909297E+00   0.4599337105E-05  -0.4059310646E-04   0.9198674211E-05  -0.8118621293E-04   0.8157656766E-01   0.6206321549E-02   0.0000000000E+00   0.4230362847E-02
   0.0000000000E+00   0.1936284167E+00   0.0000000000E+00  -0.4052577947E-04   0.0000000000E+00  -0.8105155894E-04   0.8608052270E-01   0.9479935047E-02   0.0000000000E+00   0.7388669069E-04
   0.1684767845E-01   0.1844082813E+00   0.4895351658E-05  -0.3949657975E-04   0.9790703315E-05  -0.7899315951E-04   0.9075165931E-01   0.1111903855E-01   0.0000000000E+00   0.4769170633E-02
   0.8701405384E-02   0.1988093099E+00   0.2356211199E-05  -0.4068038252E-04   0.4712422398E-05  -0.8136076505E-04   0.8382149110E-01   0.7948368983E-02   0.0000000000E+00   0.2170355367E-02
   0.8423669628E-02   0.1890179497E+00   0.2391135985E-05  -0.4014443660E-04   0.4782271970E-05  -0.8028887321E-04   0.8848474191E-01   0.1045292273E-01   0.0000000000E+00   0.2289501280E-02
   0.1712508184E-01   0.1941996574E+00   0.4749946437E-05  -0.4002753789E-04   0.9499892874E-05  -0.8005507578E-04   0.8610088046E-01   0.8436272889E-02   0.0000000000E+00   0.4512746360E-02
   0.0000000000E+00   0.1748812739E+00   0.0000000000E+00  -0.3957436877E-04   0.0000000000E+00  -0.7914873754E-04   0.9551656458E-01   0.1489540667E-01   0.0000000000E+00   0.1053352828E-03
   0.1692313852E-01   0.1652086312E+00   0.5433840441E-05  -0.3851660756E-04   0.1086768088E-04  -0.7703321511E-04   0.1011567554E+00   0.1628204366E-01   0.0000000000E+00   0.4961982926E-02
   0.8424001474E-02   0.1796443955E+00   0.2501751495E-05  -0.3966049630E-04   0.5003502989E-05  -0.7932099261E-04   0.9312889475E-01   0.1314364373E-01   0.0000000000E+00   0.2457732421E-02
   0.8461341965E-02   0.1700444785E+00   0.2641154873E-05  -0.3920115345E-04   0.5282309746E-05  -0.7840230690E-04   0.9847236177E-01   0.1579510381E-01   0.0000000000E+00   0.2333588238E-02
   0.1688534718E-01   0.1748085028E+00   0.5144458649E-05  -0.3899108175E-04   0.1028891730E-04  -0.7798216349E-04   0.9591551231E-01   0.1346737654E-01   0.0000000000E+00   0.4869658154E-02
   0.9130045696E-02   0.1309238848E+00   0.3957165492E-05  -0.3739605718E-04   0.7914330985E-05  -0.7479211435E-04   0.1353846218E+00   0.2418857979E-01   0.0000000000E+00  -0.1248189829E-02
   0.0000000000E+00   0.1280125933E+00   0.0000000000E+00  -0.3746791547E-04   0.0000000000E+00  -0.7493583093E-04   0.1467155724E+00   0.2492017774E-01   0.0000000000E+00  -0.2716676709E-03
   0.2703613547E-01   0.2198532672E+00   0.6543291013E-05  -0.4090359541E-04   0.1308658203E-04  -0.8180719081E-04   0.7472314255E-01   0.2557614115E-02   0.0000000000E+00   0.4912443993E-02
   0.1746645893E-01   0.2142008036E+00   0.4362144404E-05  -0.4122347640E-04   0.8724288808E-05  -0.8244695280E-04   0.7637850372E-01   0.3998661129E-02   0.0000000000E+00   0.3654170465E-02
   0.2697262717E-01   0.2096434890E+00   0.6940789235E-05  -0.4024098375E-04   0.1388157847E-04  -0.8048196751E-04   0.7955191005E-01   0.4508074655E-02   0.0000000000E+00   0.5622119040E-02
   0.8461793465E-02   0.1606707365E+00   0.2791655126E-05  -0.3878483991E-04   0.5583310252E-05  -0.7756967983E-04   0.1044352916E+00   0.1850085589E-01   0.0000000000E+00   0.2578974349E-02
   0.1719169376E-01   0.1553754791E+00   0.5878686239E-05  -0.3803328350E-04   0.1175737248E-04  -0.7606656700E-04   0.1087198139E+00   0.1847407047E-01   0.0000000000E+00   0.4536683851E-02
   0.3382798771E-01   0.1748776711E+00   0.1034677034E-04  -0.3732330859E-04   0.2069354069E-04  -0.7464661718E-04   0.9578236152E-01   0.1033733190E-01   0.0000000000E+00   0.8937818658E-02
   0.3462138204E-01   0.1551335403E+00   0.1186191429E-04  -0.3600290311E-04   0.2372382857E-04  -0.7200580622E-04   0.1068415050E+00   0.1374960417E-01   0.0000000000E+00   0.8433913533E-02
   0.2537571599E-01   0.1700428590E+00   0.7940930565E-05  -0.3801732525E-04   0.1588186113E-04  -0.7603465051E-04   0.9829654340E-01   0.1335515100E-01   0.0000000000E+00   0.6953155975E-02
   0.2577193835E-01   0.1601705300E+00   0.8540884286E-05  -0.3744499743E-04   0.1708176857E-04  -0.7488999485E-04   0.1043873465E+00   0.1526894802E-01   0.0000000000E+00   0.6498135218E-02
   0.3422447085E-01   0.1650056011E+00   0.1103361690E-04  -0.3666464668E-04   0.2206723380E-04  -0.7332929336E-04   0.1012426562E+00   0.1196073647E-01   0.0000000000E+00   0.8774404450E-02
   0.0000000000E+00   0.1655075435E+00   0.0000000000E+00  -0.3915417566E-04   0.0000000000E+00  -0.7830835133E-04   0.1016241366E+00   0.1739342169E-01   0.0000000000E+00   0.3000490975E-04
   0.3376242933E-01   0.1941383133E+00   0.9420142184E-05  -0.3855089484E-04   0.1884028437E-04  -0.7710178968E-04   0.8694277128E-01   0.6609038525E-02   0.0000000000E+00   0.8222271484E-02
   0.2558226783E-01   0.1990642789E+00   0.6948575653E-05  -0.3968868590E-04   0.1389715131E-04  -0.7937737181E-04   0.8438284254E-01   0.6555198379E-02   0.0000000000E+00   0.6155639771E-02
   0.2530518500E-01   0.1892730094E+00   0.7201465088E-05  -0.3911721516E-04   0.1440293018E-04  -0.7823443033E-04   0.8875022205E-01   0.8927273559E-02   0.0000000000E+00   0.6520404836E-02
   0.0000000000E+00   0.1842548961E+00   0.0000000000E+00  -0.4003064527E-04   0.0000000000E+00  -0.8006129054E-04   0.9074455274E-01   0.1191386597E-01   0.0000000000E+00   0.3194931429E-04
   0.8701070636E-02   0.2081826545E+00   0.2244628524E-05  -0.4123417308E-04   0.4489257047E-05  -0.8246834616E-04   0.7935075763E-01   0.5619497427E-02   0.0000000000E+00   0.2052192976E-02
   0.0000000000E+00   0.2030018297E+00   0.0000000000E+00  -0.4105676179E-04   0.0000000000E+00  -0.8211352358E-04   0.8148097137E-01   0.6916073582E-02   0.0000000000E+00   0.3397411453E-04
   0.5390280522E-01   0.1449152799E+00   0.1977147497E-04  -0.3171071379E-04   0.3954294995E-04  -0.6342142758E-04   0.1096905168E+00   0.6382248427E-02   0.0000000000E+00   0.8597664693E-02
   0.5474019539E-01   0.1339827500E+00   0.2189762856E-04  -0.3052666668E-04   0.4379525711E-04  -0.6105333336E-04   0.1142852645E+00   0.6025578096E-02   0.0000000000E+00   0.4410612599E-02
   0.4493834779E-01   0.1395848999E+00   0.1727526440E-04  -0.3312004631E-04   0.3455052881E-04  -0.6624009263E-04   0.1145839555E+00   0.1070263295E-01   0.0000000000E+00   0.5863101391E-02
   0.4577606695E-01   0.1286520069E+00   0.1951108473E-04  -0.3205704644E-04   0.3902216945E-04  -0.6411409287E-04   0.1228641936E+00   0.1203531587E-01   0.0000000000E+00   0.1311358182E-02
   0.9718968701E-01   0.2160421518E+00   0.2560013571E-04  -0.2964639449E-04   0.5120027142E-04  -0.5929278899E-04   0.8626955699E-01  -0.1287763879E-02   0.0000000000E+00   0.8583818682E-02
   0.1020891947E+00   0.2245375352E+00   0.2594221835E-04  -0.2946993360E-04   0.5188443669E-04  -0.5893986720E-04   0.8600207661E-01  -0.9937407978E-03   0.0000000000E+00   0.6705591043E-02
   0.9231055281E-01   0.2244846316E+00   0.2317543623E-04  -0.3132411929E-04   0.4635087246E-04  -0.6264823858E-04   0.8375689610E-01  -0.6412707618E-03   0.0000000000E+00   0.7208692007E-02
   0.1419021667E+00   0.0000000000E+00   0.7850022317E-04   0.0000000000E+00   0.1570004463E-03   0.0000000000E+00   0.4503397468E-02  -0.1185694433E-01   0.0000000000E+00  -0.6126720064E-03
   0.1314846594E+00   0.0000000000E+00   0.7822180430E-04   0.0000000000E+00   0.1564436086E-03   0.0000000000E+00   0.8111232308E-03  -0.2374663933E-01   0.0000000000E+00   0.3129441072E-03
   0.1355177867E+00   0.1073124198E-01   0.7796657889E-04  -0.6732398048E-06   0.1559331578E-03  -0.1346479610E-05   0.3386490136E-02  -0.1728750144E-01   0.0000000000E+00  -0.3831727946E-02
   0.1522863919E+00   0.1778361311E-01   0.7807097841E-04  -0.6099635446E-06   0.1561419568E-03  -0.1219927089E-05   0.1237895552E-01  -0.6731852524E-02   0.0000000000E+00  -0.8013051335E-02
   0.1627379786E+00   0.0000000000E+00   0.7932820699E-04   0.0000000000E+00   0.1586564140E-03   0.0000000000E+00   0.1399074957E-01  -0.2146656878E-02   0.0000000000E+00  -0.1504504110E-03
   0.1575127755E+00   0.8891981581E-02   0.7889384100E-04  -0.2466397899E-06   0.1577876820E-03  -0.4932795797E-06   0.1273686051E-01  -0.4657031812E-02   0.0000000000E+00  -0.3671489002E-02
   0.1678508118E+00   0.8814676492E-02   0.7943959799E-04  -0.1729727414E-06   0.1588791960E-03  -0.3459454828E-06   0.1683498377E-01  -0.1012389322E-02   0.0000000000E+00  -0.3559481240E-02
   0.1626244976E+00   0.1770662337E-01   0.7863986859E-04  -0.4314752936E-06   0.1572797372E-03  -0.8629505872E-06   0.1702841366E-01  -0.3088268220E-02   0.0000000000E+00  -0.7310658070E-02
   0.2565132830E+00   0.0000000000E+00   0.8775298552E-04   0.0000000000E+00   0.1755059710E-03   0.0000000000E+00   0.3904055819E-01   0.1124970623E-01   0.0000000000E+00  -0.8726699405E-05
   0.2618529562E+00   0.9010112653E-02   0.8834605536E-04  -0.1558576883E-07   0.1766921107E-03  -0.3117153766E-07   0.3983582681E-01   0.1130237478E-01   0.0000000000E+00  -0.1146152194E-02
   0.3502999940E+00   0.1153797818E+00   0.1000000000E-03  -0.1611415606E-05   0.2000000000E-03  -0.3222831212E-05   0.6121010623E-01   0.7089360794E-02   0.0000000000E+00  -0.5105353112E-05
   0.3418949604E+00   0.1105836219E+00   0.9837946977E-04  -0.1441690771E-05   0.1967589395E-03  -0.2883381542E-05   0.6010951442E-01   0.7443442126E-02   0.0000000000E+00  -0.6773470774E-03
   0.3419158342E+00   0.1201961143E+00   0.9831407416E-04  -0.1804551668E-05   0.1966281483E-03  -0.3609103336E-05   0.6236618056E-01   0.6659721165E-02   0.0000000000E+00  -0.6818362576E-03
   0.3335107993E+00   0.1153999558E+00   0.9669310523E-04  -0.1634413832E-05   0.1933862105E-03  -0.3268827664E-05   0.6124455752E-01   0.6953587043E-02   0.0000000000E+00  -0.1365870216E-02
   0.3502999940E+00   0.1346081040E+00   0.1000000000E-03  -0.2429008462E-05   0.2000000000E-03  -0.4858016923E-05   0.6580969895E-01   0.5544761319E-02   0.0000000000E+00  -0.4265690444E-05
   0.3335514815E+00   0.1442211274E+00   0.9627649932E-04  -0.2940528147E-05   0.1925529986E-03  -0.5881056294E-05   0.6819367298E-01   0.4710677266E-02   0.0000000000E+00  -0.1258053449E-02
   0.3419156220E+00   0.1298102770E+00   0.9824334355E-04  -0.2214335718E-05   0.1964866871E-03  -0.4428671436E-05   0.6467635809E-01   0.5891524617E-02   0.0000000000E+00  -0.6619294571E-03
   0.3419258463E+00   0.1394146592E+00   0.9817442019E-04  -0.2670253158E-05   0.1963488404E-03  -0.5340506317E-05   0.6700407844E-01   0.5144046779E-02   0.0000000000E+00  -0.6383678396E-03
   0.3335414713E+00   0.1346168215E+00   0.9641677197E-04  -0.2458849461E-05   0.1928335439E-03  -0.4917698921E-05   0.6584733807E-01   0.5421709214E-02   0.0000000000E+00  -0.1305702115E-02
   0.2252772072E+00   0.1792473605E-01   0.8397040390E-04  -0.8358346397E-07   0.1679408078E-03  -0.1671669279E-06   0.3480213344E-01   0.8630075491E-02   0.0000000000E+00  -0.3704084552E-02
   0.1939941489E+00   0.0000000000E+00   0.8138497251E-04   0.0000000000E+00   0.1627699450E-03   0.0000000000E+00   0.2579586715E-01   0.5227208488E-02   0.0000000000E+00  -0.1774507074E-04
   0.1800054366E+00   0.2245898218E+00   0.4947852822E-04  -0.1674005427E-04   0.9895705643E-04  -0.3348010853E-04   0.9263501674E-01  -0.9525450190E-03   0.0000000000E+00   0.4283560020E-03
   0.1624749270E+00   0.3473974062E-01   0.7676968256E-04  -0.9858267778E-06   0.1535393651E-03  -0.1971653556E-05   0.2343304180E-01  -0.4275621712E-02   0.0000000000E+00  -0.1325202448E-01
   0.1832509783E+00   0.3537074825E-01   0.7856877007E-04  -0.5948840154E-06   0.1571375401E-03  -0.1189768031E-05   0.2926694779E-01   0.1097229409E-02   0.0000000000E+00  -0.1104424482E-01
   0.1677194362E+00   0.2618478519E-01   0.7821538872E-04  -0.5864029065E-06   0.1564307774E-03  -0.1172805813E-05   0.2159158500E-01  -0.2110859225E-02   0.0000000000E+00  -0.9765582943E-02
   0.1781071097E+00   0.2650012316E-01   0.7899489413E-04  -0.4462479552E-06   0.1579897883E-03  -0.8924959104E-06   0.2458286334E-01   0.6481248999E-03   0.0000000000E+00  -0.9018482031E-02
   0.1728628455E+00   0.3505534112E-01   0.7763118091E-04  -0.7581261643E-06   0.1552623618E-03  -0.1516252329E-05   0.2682598526E-01  -0.1468041636E-02   0.0000000000E+00  -0.1213274493E-01
   0.1731563892E+00   0.0000000000E+00   0.7990773838E-04   0.0000000000E+00   0.1598154768E-03   0.0000000000E+00   0.1868020619E-01   0.7630290143E-03   0.0000000000E+00  -0.2221522564E-04
   0.1450206873E+00   0.3344094296E-01   0.7563610300E-04  -0.1566146386E-05   0.1512722060E-03  -0.3132292772E-05   0.1734198796E-01  -0.1098972124E-01   0.0000000000E+00  -0.1417682795E-01
   0.1386675569E+00   0.3725623875E-01   0.7447696885E-04  -0.2163849941E-05   0.1489539377E-03  -0.4327699882E-05   0.1768664502E-01  -0.1415530784E-01   0.0000000000E+00  -0.1526280998E-01
   0.1307231839E+00   0.3126617838E-01   0.7513364744E-04  -0.2330973215E-05   0.1502672949E-03  -0.4661946429E-05   0.1141894589E-01  -0.1869591090E-01   0.0000000000E+00  -0.1335115680E-01
   0.1370758574E+00   0.2745115865E-01   0.7613547837E-04  -0.1641251337E-05   0.1522709567E-03  -0.3282502675E-05   0.1075927249E-01  -0.1547123735E-01   0.0000000000E+00  -0.1133913809E-01
   0.1470947840E+00   0.8891649715E-02   0.7845401460E-04  -0.3572616209E-06   0.1569080292E-03  -0.7145232418E-06   0.8138892514E-02  -0.9554557234E-02   0.0000000000E+00  -0.4331793903E-02
   0.1523199187E+00   0.0000000000E+00   0.7886057092E-04   0.0000000000E+00   0.1577211418E-03   0.0000000000E+00   0.1000671522E-01  -0.7123572278E-02   0.0000000000E+00   0.1500538772E-04
   0.1211734030E+00   0.3033928849E-01   0.7482065490E-04  -0.3166802335E-05   0.1496413098E-03  -0.6333604670E-05   0.4975197675E-02  -0.2708545156E-01   0.0000000000E+00  -0.9832286575E-02
   0.1407087199E+00   0.1962293717E-01   0.7735862605E-04  -0.1015642941E-05   0.1547172521E-03  -0.2031285883E-05   0.8682807203E-02  -0.1373938303E-01   0.0000000000E+00  -0.8716542927E-02
   0.3502999940E+00   0.1442220603E+00   0.1000000000E-03  -0.2907571103E-05   0.2000000000E-03  -0.5815142206E-05   0.6813466559E-01   0.4787745473E-02   0.0000000000E+00  -0.1432980325E-05
   0.3419256327E+00   0.1490285291E+00   0.9810323791E-04  -0.3172623256E-05   0.1962064758E-03  -0.6345246511E-05   0.6934622599E-01   0.4423181364E-02   0.0000000000E+00  -0.6170311362E-03
   0.2140923774E+00   0.2161552343E+00   0.6079279363E-04  -0.1243657472E-04   0.1215855873E-03  -0.2487314944E-04   0.8978152688E-01  -0.7357523487E-03   0.0000000000E+00  -0.1631914624E-02
   0.2189481199E+00   0.2246159238E+00   0.6146030885E-04  -0.1282240170E-04   0.1229206177E-03  -0.2564480340E-04   0.9151815759E-01  -0.3896978049E-03   0.0000000000E+00  -0.1368320582E-02
   0.2092155105E+00   0.2246075399E+00   0.5848316372E-04  -0.1364536868E-04   0.1169663274E-03  -0.2729073736E-04   0.9190015229E-01  -0.5587969534E-03   0.0000000000E+00  -0.1073884729E-02
   0.3165496451E+00   0.1058337797E+00   0.9362437268E-04  -0.1352425665E-05   0.1872487454E-03  -0.2704851329E-05   0.5901015866E-01   0.7393781580E-02   0.0000000000E+00  -0.2752706261E-02
   0.3081071995E+00   0.1106658739E+00   0.9185151156E-04  -0.1574028445E-05   0.1837030231E-03  -0.3148056890E-05   0.6017377989E-01   0.6763477342E-02   0.0000000000E+00  -0.3430405632E-02
   0.3502999940E+00   0.1249940096E+00   0.1000000000E-03  -0.1996786216E-05   0.2000000000E-03  -0.3993572433E-05   0.6350074267E-01   0.6286400970E-02   0.0000000000E+00  -0.1367761401E-05
   0.3249090865E+00   0.9138578322E-01   0.9550515208E-04  -0.8836601950E-06   0.1910103042E-03  -0.1767320390E-05   0.5574494705E-01   0.8768078955E-02   0.0000000000E+00  -0.2036831641E-02
   0.3249659837E+00   0.1010018545E+00   0.9531791182E-04  -0.1161176287E-05   0.1906358236E-03  -0.2322352573E-05   0.5790040156E-01   0.8007038710E-02   0.0000000000E+00  -0.2046127864E-02
   0.3502999940E+00   0.1057654140E+00   0.1000000000E-03  -0.1272670158E-05   0.2000000000E-03  -0.2545340316E-05   0.5902002085E-01   0.7849769457E-02   0.0000000000E+00  -0.1312816320E-05
   0.2891540970E+00   0.3564811737E-01   0.9135901011E-04  -0.9357729048E-07   0.1827180202E-03  -0.1871545810E-06   0.4470837613E-01   0.1161916612E-01   0.0000000000E+00  -0.2741415788E-02
   0.2989224101E+00   0.5045154911E-01   0.9235437390E-04  -0.2016633039E-06   0.1847087478E-03  -0.4033266077E-06   0.4735454267E-01   0.1110843467E-01   0.0000000000E+00  -0.3018845563E-02
   0.3004264105E+00   0.3573240665E-01   0.9291917907E-04  -0.8335120801E-07   0.1858383581E-03  -0.1667024160E-06   0.4549437682E-01   0.1196696085E-01   0.0000000000E+00  -0.2208316943E-02
   0.3053106626E+00   0.4313415309E-01   0.9345885443E-04  -0.1278369269E-06   0.1869177089E-03  -0.2556738538E-06   0.4657823810E-01   0.1167449328E-01   0.0000000000E+00  -0.2307262816E-02
   0.2940382368E+00   0.4304985222E-01   0.9185093296E-04  -0.1406928818E-06   0.1837018659E-03  -0.2813857636E-06   0.4597871001E-01   0.1134049317E-01   0.0000000000E+00  -0.2903600831E-02
   0.3502999940E+00   0.8653626708E-01   0.1000000000E-03  -0.7322406491E-06   0.2000000000E-03  -0.1464481298E-05   0.5486622241E-01   0.9394663471E-02   0.0000000000E+00  -0.1253064238E-05
   0.3151346641E+00   0.5754579427E-01   0.9460902629E-04  -0.2576438207E-06   0.1892180526E-03  -0.5152876413E-06   0.4906140021E-01   0.1110902893E-01   0.0000000000E+00  -0.2228863993E-02
   0.3240772955E+00   0.6237705617E-01   0.9589950814E-04  -0.3085426380E-06   0.1917990163E-03  -0.6170852760E-06   0.5007802711E-01   0.1094161344E-01   0.0000000000E+00  -0.1704523060E-02
   0.3155992542E+00   0.6724989026E-01   0.9447039407E-04  -0.3936784704E-06   0.1889407881E-03  -0.7873569408E-06   0.5084286284E-01   0.1041121244E-01   0.0000000000E+00  -0.2417244499E-02
   0.3502999940E+00   0.6730660650E-01   0.1000000000E-03  -0.3630675767E-06   0.2000000000E-03  -0.7261351535E-06   0.5122855395E-01   0.1082021847E-01   0.0000000000E+00  -0.1287695481E-05
   0.3219230033E+00   0.4152528207E-01   0.9587943329E-04  -0.1030446854E-06   0.1917588666E-03  -0.2060893708E-06   0.4695908489E-01   0.1213734675E-01   0.0000000000E+00  -0.1336699254E-02
   0.3236410992E+00   0.5238984151E-01   0.9598573670E-04  -0.1912292211E-06   0.1919714734E-03  -0.3824584421E-06   0.4845661534E-01   0.1154793156E-01   0.0000000000E+00  -0.1603183031E-02
   0.3134167540E+00   0.4668129916E-01   0.9456433134E-04  -0.1479788343E-06   0.1891286627E-03  -0.2959576686E-06   0.4747389254E-01   0.1168013006E-01   0.0000000000E+00  -0.1985863762E-02
   0.3502999940E+00   0.4807649712E-01   0.1000000000E-03  -0.1422602794E-06   0.2000000000E-03  -0.2845205588E-06   0.4829728086E-01   0.1201522791E-01   0.0000000000E+00   0.1704416476E-06
   0.3227586999E+00   0.7977478042E-02   0.9624997997E-04  -0.3779284681E-08   0.1924999599E-03  -0.7558569363E-08   0.4448754399E-01   0.1316705194E-01   0.0000000000E+00  -0.3135137970E-03
   0.3305898761E+00   0.1308583094E-01   0.9729968720E-04  -0.6520331085E-08   0.1945993744E-03  -0.1304066217E-07   0.4502651627E-01   0.1317330096E-01   0.0000000000E+00  -0.3158874855E-03
   0.6709417521E-01   0.1968626417E+00   0.1883447161E-04  -0.3366044889E-04   0.3766894321E-04  -0.6732089777E-04   0.8814780144E-01   0.9278887689E-03   0.0000000000E+00   0.1152506540E-01
   0.4894956914E-01   0.2013486246E+00   0.1330291185E-04  -0.3704213389E-04   0.2660582371E-04  -0.7408426778E-04   0.8503264037E-01   0.3327475833E-02   0.0000000000E+00   0.9906443517E-02
   0.6237415971E-01   0.2063185647E+00   0.1670046977E-04  -0.3527344440E-04   0.3340093955E-04  -0.7054688880E-04   0.8438138563E-01   0.1375743351E-02   0.0000000000E+00   0.1022548154E-01
   0.5330210112E-01   0.2085616790E+00   0.1401680757E-04  -0.3692333345E-04   0.2803361514E-04  -0.7384666690E-04   0.8271910021E-01   0.2088937834E-02   0.0000000000E+00   0.9422730672E-02
   0.5802175456E-01   0.1991053865E+00   0.1602885479E-04  -0.3543351013E-04   0.3205770958E-04  -0.7086702027E-04   0.8675997939E-01   0.2143745319E-02   0.0000000000E+00   0.1077525281E-01
   0.4863815367E-01   0.2498785151E+00   0.9013922716E-05  -0.4049498277E-04   0.1802784543E-04  -0.8098996555E-04   0.6214872335E-01  -0.1288883801E-03   0.0000000000E+00   0.2430126469E-03
   0.7746382128E-01   0.2155619185E+00   0.2005719423E-04  -0.3334649301E-04   0.4011438846E-04  -0.6669298601E-04   0.8355594956E-01  -0.2291166471E-03   0.0000000000E+00   0.9504104101E-02
   0.7266441546E-01   0.2242115620E+00   0.1782862031E-04  -0.3492232845E-04   0.3565724062E-04  -0.6984465690E-04   0.7993927419E-01   0.1344802966E-03   0.0000000000E+00   0.7696971304E-02
   0.6275995096E-01   0.2243180794E+00   0.1520918554E-04  -0.3661954987E-04   0.3041837108E-04  -0.7323909973E-04   0.7834448523E-01   0.4668738524E-03   0.0000000000E+00   0.7457960939E-02
   0.6755899308E-01   0.2156681575E+00   0.1731652653E-04  -0.3513183231E-04   0.3463305307E-04  -0.7026366462E-04   0.8199056663E-01   0.4756315456E-03   0.0000000000E+00   0.9356285150E-02
   0.6809544690E-01   0.2498871194E+00   0.1329723308E-04  -0.3762685147E-04   0.2659446615E-04  -0.7525370294E-04   0.7006227417E-01  -0.3395131890E-04   0.0000000000E+00   0.2918496059E-03
   0.8764886930E-01   0.1993195163E+00   0.2466913403E-04  -0.2995490276E-04   0.4933826806E-04  -0.5990980551E-04   0.8881337679E-01  -0.1716871503E-02   0.0000000000E+00   0.1080829078E-01
   0.1068645343E+00   0.1994079156E+00   0.3042309653E-04  -0.2617780445E-04   0.6084619306E-04  -0.5235560890E-04   0.8965957893E-01  -0.3355541674E-02   0.0000000000E+00   0.9016122153E-02
   0.9725666969E-01   0.1993637263E+00   0.2753546227E-04  -0.2806288658E-04   0.5507092454E-04  -0.5612577317E-04   0.8930494795E-01  -0.2536603070E-02   0.0000000000E+00   0.9971945817E-02
   0.1020270703E+00   0.2077249531E+00   0.2799809643E-04  -0.2793661991E-04   0.5599619286E-04  -0.5587323982E-04   0.8795067132E-01  -0.2208916578E-02   0.0000000000E+00   0.8805902339E-02
   0.9241940469E-01   0.2076808152E+00   0.2517679583E-04  -0.2980427290E-04   0.5035359167E-04  -0.5960854579E-04   0.8747374712E-01  -0.1697660873E-02   0.0000000000E+00   0.9638894159E-02
   0.8755432991E-01   0.2498971533E+00   0.1810797028E-04  -0.3428224979E-04   0.3621594056E-04  -0.6856449958E-04   0.7836086433E-01   0.5391896097E-04   0.0000000000E+00   0.2693056846E-03
   0.1120994351E+00   0.1455210186E+00   0.3967071417E-04  -0.1881413990E-04   0.7934142835E-04  -0.3762827979E-04   0.9412347496E-01  -0.1234238737E-01   0.0000000000E+00   0.1974882204E-02
   0.1041810596E+00   0.1665088900E+00   0.3371154740E-04  -0.2309966673E-04   0.6742309479E-04  -0.4619933347E-04   0.9455944015E-01  -0.7704437022E-02   0.0000000000E+00   0.7654375800E-02
   0.9074611696E-01   0.1517543567E+00   0.3150512160E-04  -0.2417210199E-04   0.6301024319E-04  -0.4834420399E-04   0.9904399519E-01  -0.7595713892E-02   0.0000000000E+00   0.7199027560E-02
   0.1081398914E+00   0.1560148578E+00   0.3657379895E-04  -0.2099139857E-04   0.7314759789E-04  -0.4198279714E-04   0.9444003323E-01  -0.9823102912E-02   0.0000000000E+00   0.4886672496E-02
   0.9746354712E-01   0.1591316852E+00   0.3259343974E-04  -0.2361527043E-04   0.6518687948E-04  -0.4723054087E-04   0.9662159411E-01  -0.7877130968E-02   0.0000000000E+00   0.7319234672E-02
   0.1014228174E+00   0.1486378458E+00   0.3560179681E-04  -0.2144274618E-04   0.7120359363E-04  -0.4288549236E-04   0.9671080864E-01  -0.1003263036E-01   0.0000000000E+00   0.4667495598E-02
   0.1070147413E+00   0.2499077668E+00   0.2343310459E-04  -0.3074439929E-04   0.4686620918E-04  -0.6148879858E-04   0.8590714217E-01   0.1159215273E-03   0.0000000000E+00   0.2167334719E-03
   0.9504006418E-01   0.9625362950E-01   0.4754335905E-04  -0.1571460164E-04   0.9508671810E-04  -0.3142920328E-04   0.8254663064E-01  -0.1499362210E-01   0.0000000000E+00  -0.1562529024E-01
   0.1090737393E+00   0.7683405379E-01   0.5857509291E-04  -0.1005050208E-04   0.1171501858E-03  -0.2010100416E-04   0.5551356664E-01  -0.1890182337E-01   0.0000000000E+00  -0.2045983294E-01
   0.9197055000E-01   0.8500798204E-01   0.5141463300E-04  -0.1519122156E-04   0.1028292660E-03  -0.3038244312E-04   0.6639425858E-01  -0.1183015936E-01   0.0000000000E+00  -0.1829920555E-01
   0.9898824379E-01   0.7529842888E-01   0.5721592840E-04  -0.1228093892E-04   0.1144318568E-03  -0.2456187784E-04   0.5356124555E-01  -0.1321980308E-01   0.0000000000E+00  -0.2062885537E-01
   0.1020573740E+00   0.8654411811E-01   0.5321666680E-04  -0.1279039523E-04   0.1064333336E-03  -0.2558079047E-04   0.6922902616E-01  -0.1703311991E-01   0.0000000000E+00  -0.1850429156E-01
   0.1264764903E+00   0.2499182269E+00   0.2919911271E-04  -0.2725770590E-04   0.5839822541E-04  -0.5451541181E-04   0.9195431280E-01   0.1458535155E-03   0.0000000000E+00   0.1521374310E-03
   0.1508024568E+00   0.2245943039E+00   0.4046927158E-04  -0.2082869755E-04   0.8093854316E-04  -0.4165739511E-04   0.9151618518E-01  -0.1295830258E-02   0.0000000000E+00   0.2618095033E-02
   0.1459314384E+00   0.2161506619E+00   0.4009912546E-04  -0.2079036363E-04   0.8019825092E-04  -0.4158072726E-04   0.9064742655E-01  -0.1961152816E-02   0.0000000000E+00   0.3695495035E-02
   0.1459392358E+00   0.2499279845E+00   0.3529759299E-04  -0.2400515006E-04   0.7059518598E-04  -0.4801030013E-04   0.9617091478E-01   0.1480275666E-03   0.0000000000E+00   0.8906043063E-04
   0.1946156268E+00   0.2161286797E+00   0.5492394368E-04  -0.1426941818E-04   0.1098478874E-03  -0.2853883637E-04   0.9057105191E-01  -0.1173774446E-02   0.0000000000E+00  -0.6470219070E-03
   0.2043540171E+00   0.2161421208E+00   0.5786601799E-04  -0.1330072488E-04   0.1157320360E-03  -0.2660144975E-04   0.9026049798E-01  -0.9285357875E-03   0.0000000000E+00  -0.1169190321E-02
   0.1994769543E+00   0.2245942470E+00   0.5549076155E-04  -0.1456932385E-04   0.1109815231E-03  -0.2913864769E-04   0.9230901628E-01  -0.6666882974E-03   0.0000000000E+00  -0.6537046239E-03
   0.1654026094E+00   0.2499366908E+00   0.4161014038E-04  -0.2110307833E-04   0.8322028076E-04  -0.4220615667E-04   0.9857249693E-01   0.1306759382E-03   0.0000000000E+00   0.3599730529E-04
   0.1897437638E+00   0.2245895483E+00   0.5248892145E-04  -0.1559924722E-04   0.1049778429E-03  -0.3119849444E-04   0.9241341194E-01  -0.8430796774E-03   0.0000000000E+00  -0.1872730413E-03
   0.1848774635E+00   0.2161291554E+00   0.5196817896E-04  -0.1534787878E-04   0.1039363579E-03  -0.3069575756E-04   0.9090199346E-01  -0.1351147557E-02   0.0000000000E+00   0.4525683756E-04
   0.1848662962E+00   0.2499441752E+00   0.4802707699E-04  -0.1860826411E-04   0.9605415398E-04  -0.3721652823E-04   0.9940667486E-01   0.1024456383E-03   0.0000000000E+00  -0.3085096895E-05
   0.2253181013E+00   0.3586891224E-01   0.8309277225E-04  -0.2535548246E-06   0.1661855445E-03  -0.5071096492E-06   0.3774222390E-01   0.7431324408E-02   0.0000000000E+00  -0.6898486482E-02
   0.2464461979E+00   0.3605618760E-01   0.8567864047E-04  -0.1773659376E-06   0.1713572809E-03  -0.3547318753E-06   0.4073804713E-01   0.9303715653E-02   0.0000000000E+00  -0.5303242667E-02
   0.2305296682E+00   0.2690437498E-01   0.8419241469E-04  -0.1376405088E-06   0.1683848294E-03  -0.2752810176E-06   0.3698976215E-01   0.8473994259E-02   0.0000000000E+00  -0.4980569128E-02
   0.2410935483E+00   0.2699797226E-01   0.8542410113E-04  -0.1130127200E-06   0.1708482023E-03  -0.2260254399E-06   0.3848932770E-01   0.9344014243E-02   0.0000000000E+00  -0.4354948869E-02
   0.2358820848E+00   0.3596256263E-01   0.8436427218E-04  -0.2112228515E-06   0.1687285444E-03  -0.4224457029E-06   0.3948748561E-01   0.8441158880E-02   0.0000000000E+00  -0.6082886152E-02
   0.2043300421E+00   0.2499504062E+00   0.5445869443E-04  -0.1653125907E-04   0.1089173889E-03  -0.3306251813E-04   0.9903838141E-01   0.7053582121E-04   0.0000000000E+00  -0.2816605029E-04
   0.2742426379E+00   0.1830273585E+00   0.8039628699E-04  -0.6332491180E-05   0.1607925740E-03  -0.1266498236E-04   0.7901724308E-01   0.9902398141E-03   0.0000000000E+00  -0.3712556014E-02
   0.2789038826E+00   0.1913651245E+00   0.8113552487E-04  -0.6834171234E-05   0.1622710497E-03  -0.1366834247E-04   0.8078200378E-01   0.9035391169E-03   0.0000000000E+00  -0.3210193366E-02
   0.2689028175E+00   0.1912441373E+00   0.7845281816E-04  -0.7143550302E-05   0.1569056363E-03  -0.1428710060E-04   0.8118747997E-01   0.5978427795E-03   0.0000000000E+00  -0.3444732964E-02
   0.2237936356E+00   0.2499554463E+00   0.6083987039E-04  -0.1485123752E-04   0.1216797408E-03  -0.2970247504E-04   0.9786021188E-01   0.3990796779E-04   0.0000000000E+00  -0.4125526811E-04
   0.2336008393E+00   0.2161855630E+00   0.6660311115E-04  -0.1099434742E-04   0.1332062223E-03  -0.2198869485E-04   0.8877265720E-01  -0.3423840751E-03   0.0000000000E+00  -0.2180436778E-02
   0.2287025288E+00   0.2246311205E+00   0.6442726355E-04  -0.1209315734E-04   0.1288545271E-03  -0.2418631468E-04   0.9099997743E-01  -0.2953560344E-03   0.0000000000E+00  -0.1602655384E-02
   0.2238466438E+00   0.2161705292E+00   0.6370727643E-04  -0.1166927591E-04   0.1274145529E-03  -0.2333855181E-04   0.8932350652E-01  -0.5250392470E-03   0.0000000000E+00  -0.1932924341E-02
   0.2432569420E+00   0.2499594120E+00   0.6712998694E-04  -0.1352934787E-04   0.1342599739E-03  -0.2705869575E-04   0.9623558008E-01   0.1323419968E-04   0.0000000000E+00  -0.4534339919E-04
   0.3151578896E+00   0.2132754627E+00   0.9019153726E-04  -0.7818114796E-05   0.1803830745E-03  -0.1563622959E-04   0.8434032258E-01   0.6471595398E-03   0.0000000000E+00  -0.1287598564E-02
   0.3242881008E+00   0.2074402928E+00   0.9285425978E-04  -0.7240062687E-05   0.1857085196E-03  -0.1448012537E-04   0.8296001543E-01   0.9338525378E-03   0.0000000000E+00  -0.1043971514E-02
   0.3155100166E+00   0.2028187557E+00   0.9055320946E-04  -0.6972432165E-05   0.1811064189E-03  -0.1394486433E-04   0.8210061109E-01   0.1042842795E-02   0.0000000000E+00  -0.1515700604E-02
   0.2627199183E+00   0.2499624422E+00   0.7331010988E-04  -0.1251927692E-04   0.1466202198E-03  -0.2503855385E-04   0.9447040625E-01  -0.8738713382E-05   0.0000000000E+00  -0.4376032098E-04
   0.3502999940E+00   0.1922898318E+00   0.1000000000E-03  -0.5954747851E-05   0.2000000000E-03  -0.1190949570E-04   0.7947009671E-01   0.1692129557E-02   0.0000000000E+00  -0.2141018877E-05
   0.3418487567E+00   0.1874355963E+00   0.9780988360E-04  -0.5612888546E-05   0.1956197672E-03  -0.1122577709E-04   0.7842642912E-01   0.1947424901E-02   0.0000000000E+00  -0.4742450568E-03
   0.3418590953E+00   0.1969474497E+00   0.9774941878E-04  -0.6315092138E-05   0.1954988376E-03  -0.1263018428E-04   0.8052717975E-01   0.1461342710E-02   0.0000000000E+00  -0.3943701366E-03
   0.2821825910E+00   0.2499646754E+00   0.7937898457E-04  -0.1177485289E-04   0.1587579691E-03  -0.2354970578E-04   0.9280415882E-01  -0.2621052497E-04   0.0000000000E+00  -0.4024863035E-04
   0.2932067522E+00   0.2158033990E+00   0.8391372050E-04  -0.8434334849E-05   0.1678274410E-03  -0.1686866970E-04   0.8559227642E-01   0.4380340461E-03   0.0000000000E+00  -0.1835112600E-02
   0.2880120907E+00   0.2243188734E+00   0.8207658162E-04  -0.9294548582E-05   0.1641531632E-03  -0.1858909716E-04   0.8760018684E-01   0.2424614963E-03   0.0000000000E+00  -0.1523900423E-02
   0.2780052084E+00   0.2244859864E+00   0.7914380781E-04  -0.9608547105E-05   0.1582876156E-03  -0.1921709421E-04   0.8810413207E-01   0.2014044216E-03   0.0000000000E+00  -0.1679692930E-02
   0.2832001090E+00   0.2159706174E+00   0.8105032558E-04  -0.8713210376E-05   0.1621006512E-03  -0.1742642075E-04   0.8605166635E-01   0.3246174228E-03   0.0000000000E+00  -0.2035374937E-02
   0.3016449367E+00   0.2499662347E+00   0.8534888729E-04  -0.1125511544E-04   0.1706977746E-03  -0.2251023088E-04   0.9141979163E-01  -0.4141377207E-04   0.0000000000E+00  -0.3750455914E-04
   0.3347558795E+00   0.2178736887E+00   0.9561983949E-04  -0.8008098487E-05   0.1912396790E-03  -0.1601619697E-04   0.8486707883E-01   0.5613034986E-03   0.0000000000E+00  -0.5350221147E-03
   0.3425278264E+00   0.2243079244E+00   0.9777814865E-04  -0.8513520904E-05   0.1955562973E-03  -0.1702704181E-04   0.8599108219E-01   0.3982088406E-03   0.0000000000E+00  -0.2290017652E-03
   0.3373201205E+00   0.2315366284E+00   0.9623217238E-04  -0.9153865817E-05   0.1924643448E-03  -0.1830773163E-04   0.8726199584E-01   0.1743689020E-03   0.0000000000E+00  -0.2903205681E-03
   0.3295481114E+00   0.2251023659E+00   0.9405314934E-04  -0.8652361459E-05   0.1881062987E-03  -0.1730472292E-04   0.8629545252E-01   0.3609907683E-03   0.0000000000E+00  -0.5517065974E-03
   0.2604124518E-01   0.1503375950E+00   0.9235658579E-05  -0.3688933985E-04   0.1847131716E-04  -0.7377867970E-04   0.1108585634E+00   0.1731115862E-01   0.0000000000E+00   0.6139098435E-02
   0.5153220504E-01   0.1655279250E+00   0.1663211450E-04  -0.3390000346E-04   0.3326422899E-04  -0.6780000691E-04   0.9997083918E-01   0.6312260736E-02   0.0000000000E+00   0.1122091033E-01
   0.5271705397E-01   0.1552215032E+00   0.1805079081E-04  -0.3283860838E-04   0.3610158162E-04  -0.6567721675E-04   0.1047201005E+00   0.6485779313E-02   0.0000000000E+00   0.1010532722E-01
   0.4307692990E-01   0.1603305878E+00   0.1429186779E-04  -0.3499973897E-04   0.2858373557E-04  -0.6999947794E-04   0.1028613420E+00   0.9821541525E-02   0.0000000000E+00   0.9665716768E-02
   0.4426172718E-01   0.1500238392E+00   0.1569455974E-04  -0.3404694696E-04   0.3138911947E-04  -0.6809389391E-04   0.1090440849E+00   0.1037856930E-01   0.0000000000E+00   0.8426907809E-02
   0.4274582239E-01   0.2083225015E+00   0.1117379817E-04  -0.3841315102E-04   0.2234759634E-04  -0.7682630204E-04   0.8158091275E-01   0.3295001935E-02   0.0000000000E+00   0.8283849108E-02
   0.3515252179E-01   0.2047175688E+00   0.9322197881E-05  -0.3909339597E-04   0.1864439576E-04  -0.7818679194E-04   0.8236033387E-01   0.4477284918E-02   0.0000000000E+00   0.7635061325E-02
   0.4135607358E-01   0.1977432963E+00   0.1138632715E-04  -0.3785388754E-04   0.2277265430E-04  -0.7570777508E-04   0.8587198700E-01   0.4969717460E-02   0.0000000000E+00   0.9079497468E-02
   0.3379515536E-01   0.1845080238E+00   0.9865720242E-05  -0.3792905589E-04   0.1973144048E-04  -0.7585811178E-04   0.9132021587E-01   0.8359733449E-02   0.0000000000E+00   0.8620093433E-02
   0.2533761959E-01   0.1796425431E+00   0.7549896482E-05  -0.3855429557E-04   0.1509979296E-04  -0.7710859114E-04   0.9343590662E-01   0.1089329050E-01   0.0000000000E+00   0.6743992913E-02
   0.7737150766E-01   0.1980909769E+00   0.2174568780E-04  -0.3184169699E-04   0.4349137560E-04  -0.6368339398E-04   0.8843474054E-01  -0.4262169991E-03   0.0000000000E+00   0.1126160999E-01
   0.8255626238E-01   0.2074406067E+00   0.2233676090E-04  -0.3168744096E-04   0.4467352181E-04  -0.6337488192E-04   0.8622710682E-01  -0.7831229228E-03   0.0000000000E+00   0.1011964545E-01
   0.7227918908E-01   0.2062122680E+00   0.1950946165E-04  -0.3350765564E-04   0.3901892329E-04  -0.6701531128E-04   0.8578350688E-01   0.9292669234E-04   0.0000000000E+00   0.1047789923E-01
   0.3335243051E+00   0.1538105016E+00   0.9612870389E-04  -0.3466802968E-05   0.1922574078E-03  -0.6933605937E-05   0.7051072330E-01   0.3996581877E-02   0.0000000000E+00  -0.1195653464E-02
   0.3502999940E+00   0.1826765279E+00   0.1000000000E-03  -0.5263712800E-05   0.2000000000E-03  -0.1052742560E-04   0.7726499760E-01   0.2215232389E-02   0.0000000000E+00  -0.1653080201E-05
   0.3250738217E+00   0.1106193234E+00   0.9513355049E-04  -0.1484540356E-05   0.1902671010E-03  -0.2969080712E-05   0.6011822084E-01   0.7213297518E-02   0.0000000000E+00  -0.2062933762E-02
   0.2475598905E+00   0.9581264495E-01   0.8136548992E-04  -0.1707382130E-05   0.1627309798E-03  -0.3414764260E-05   0.5645903362E-01   0.3962391190E-02   0.0000000000E+00  -0.8627614023E-02
   0.2649722993E+00   0.8646049750E-01   0.8523477348E-04  -0.1111300729E-05   0.1704695470E-03  -0.2222601459E-05   0.5386482682E-01   0.6417752514E-02   0.0000000000E+00  -0.6993517239E-02
   0.2648251684E+00   0.1059524515E+00   0.8376545226E-04  -0.1856843401E-05   0.1675309045E-03  -0.3713686802E-05   0.5920760438E-01   0.4696823928E-02   0.0000000000E+00  -0.7026393145E-02
   0.2562662428E+00   0.9113665730E-01   0.8334927801E-04  -0.1380633412E-05   0.1666985560E-03  -0.2761266825E-05   0.5507020669E-01   0.5185534375E-02   0.0000000000E+00  -0.7816653346E-02
   0.2648987607E+00   0.9620655584E-01   0.8451388565E-04  -0.1456988093E-05   0.1690277713E-03  -0.2913976186E-05   0.5651813529E-01   0.5491937366E-02   0.0000000000E+00  -0.7050596827E-02
   0.2561924301E+00   0.1008825634E+00   0.8252737418E-04  -0.1777197156E-05   0.1650547484E-03  -0.3554394312E-05   0.5793438850E-01   0.4391825993E-02   0.0000000000E+00  -0.7779646703E-02
   0.3502999940E+00   0.2115161348E+00   0.1000000000E-03  -0.7443062110E-05   0.2000000000E-03  -0.1488612422E-04   0.8352425493E-01   0.8100416154E-03   0.0000000000E+00   0.2325593456E-05
   0.3502999940E+00   0.2019030257E+00   0.1000000000E-03  -0.6682087096E-05   0.2000000000E-03  -0.1336417419E-04   0.8149624411E-01   0.1222376189E-02   0.0000000000E+00  -0.1598079512E-05
   0.3418589127E+00   0.2065605922E+00   0.9768856900E-04  -0.7059596785E-05   0.1953771380E-03  -0.1411919357E-04   0.8256322623E-01   0.1017368288E-02   0.0000000000E+00  -0.3751509488E-03
   0.3007847932E+00   0.2008260427E+00   0.8660439997E-04  -0.7050433729E-05   0.1732087999E-03  -0.1410086746E-04   0.8211359332E-01   0.9688488501E-03   0.0000000000E+00  -0.2142752565E-02
   0.2961319097E+00   0.1829856485E+00   0.8609922903E-04  -0.5786491900E-05   0.1721984581E-03  -0.1157298380E-04   0.7820029767E-01   0.1609516916E-02   0.0000000000E+00  -0.2888156969E-02
   0.2984582806E+00   0.1919058936E+00   0.8632819576E-04  -0.6404784061E-05   0.1726563915E-03  -0.1280956812E-04   0.8016541210E-01   0.1294567572E-02   0.0000000000E+00  -0.2504828055E-02
   0.3059969402E+00   0.1876738514E+00   0.8847838486E-04  -0.5955539456E-05   0.1769567697E-03  -0.1191107891E-04   0.7903197131E-01   0.1575687156E-02   0.0000000000E+00  -0.2300473457E-02
   0.3083235624E+00   0.1965940318E+00   0.8879112089E-04  -0.6590736381E-05   0.1775822418E-03  -0.1318147276E-04   0.8097125544E-01   0.1244437300E-02   0.0000000000E+00  -0.1938209379E-02
   0.3251144056E+00   0.1394205031E+00   0.9450520441E-04  -0.2733951921E-05   0.1890104088E-03  -0.5467903842E-05   0.6710129554E-01   0.4943225288E-02   0.0000000000E+00  -0.1917546766E-02
   0.2996706626E+00   0.1250423267E+00   0.8957452697E-04  -0.2247764878E-05   0.1791490539E-03  -0.4495529757E-05   0.6377410972E-01   0.5300377965E-02   0.0000000000E+00  -0.4014133397E-02
   0.2996139805E+00   0.1154615088E+00   0.8999250030E-04  -0.1829387979E-05   0.1799850006E-03  -0.3658775957E-05   0.6137122031E-01   0.6023083603E-02   0.0000000000E+00  -0.4101020138E-02
   0.3081640818E+00   0.1202467950E+00   0.9151027495E-04  -0.1958015542E-05   0.1830205499E-03  -0.3916031083E-05   0.6250589258E-01   0.5983617195E-02   0.0000000000E+00  -0.3383941616E-02
   0.3162529030E+00   0.8658513260E-01   0.9410101664E-04  -0.7853651920E-06   0.1882020333E-03  -0.1570730384E-05   0.5469056501E-01   0.8951747457E-02   0.0000000000E+00  -0.2672709399E-02
   0.2799844484E+00   0.5578686575E-01   0.8937847346E-04  -0.3119835201E-06   0.1787569469E-03  -0.6239670402E-06   0.4730185221E-01   0.9977008075E-02   0.0000000000E+00  -0.4588798587E-02
   0.2985210135E+00   0.6737482404E-01   0.9176183412E-04  -0.4375866436E-06   0.1835236682E-03  -0.8751732872E-06   0.5033716346E-01   0.9924333630E-02   0.0000000000E+00  -0.3685546802E-02
   0.2894534500E+00   0.5311922568E-01   0.9087833370E-04  -0.2513720758E-06   0.1817566674E-03  -0.5027441517E-06   0.4735613662E-01   0.1055802393E-01   0.0000000000E+00  -0.3787085153E-02
   0.2987217442E+00   0.5891323206E-01   0.9207371747E-04  -0.3050801860E-06   0.1841474349E-03  -0.6101603720E-06   0.4886170765E-01   0.1048184801E-01   0.0000000000E+00  -0.3360461397E-02
   0.2892526255E+00   0.6158085942E-01   0.9053515526E-04  -0.3699588298E-06   0.1810703105E-03  -0.7399176596E-06   0.4887649431E-01   0.9963816570E-02   0.0000000000E+00  -0.4128022814E-02
   0.3340869413E+00   0.2097393671E+00   0.9552211559E-04  -0.7347968952E-05   0.1910442312E-03  -0.1469593790E-04   0.8320845185E-01   0.8751407511E-03   0.0000000000E+00  -0.6454865282E-03
   0.3425279735E+00   0.2146949511E+00   0.9782717272E-04  -0.7712649472E-05   0.1956543454E-03  -0.1542529894E-04   0.8418418606E-01   0.6994062605E-03   0.0000000000E+00  -0.2677716245E-03
   0.3197489307E+00   0.2228032599E+00   0.9128190509E-04  -0.8555027370E-05   0.1825638102E-03  -0.1711005474E-04   0.8605431554E-01   0.4254052614E-03   0.0000000000E+00  -0.8842521676E-03
   0.3091870807E+00   0.2227968796E+00   0.8825323121E-04  -0.8704788726E-05   0.1765064624E-03  -0.1740957745E-04   0.8641172676E-01   0.3778741125E-03   0.0000000000E+00  -0.1136654718E-02
   0.3164502482E+00   0.1536982088E+00   0.9218206322E-04  -0.3575390636E-05   0.1843641264E-03  -0.7150781273E-05   0.7068625729E-01   0.3748111368E-02   0.0000000000E+00  -0.2385657487E-02
   0.3250009774E+00   0.1489597218E+00   0.9426679698E-04  -0.3240053191E-05   0.1885335940E-03  -0.6480106381E-05   0.6943616687E-01   0.4245606181E-02   0.0000000000E+00  -0.1830946489E-02
   0.3249735873E+00   0.1585490171E+00   0.9404742409E-04  -0.3792618031E-05   0.1880948482E-03  -0.7585236061E-05   0.7178176707E-01   0.3574093126E-02   0.0000000000E+00  -0.1744031726E-02
   0.2238961841E+00   0.1992477649E+00   0.6530468862E-04  -0.1014203469E-04   0.1306093772E-03  -0.2028406938E-04   0.8554387788E-01  -0.1034001720E-02   0.0000000000E+00  -0.2912148692E-02
   0.2043726941E+00   0.1991856203E+00   0.5968069851E-04  -0.1171891051E-04   0.1193613970E-03  -0.2343782101E-04   0.8673895218E-01  -0.1887603959E-02   0.0000000000E+00  -0.2059170999E-02
   0.2189943404E+00   0.2077015592E+00   0.6306879804E-04  -0.1126692103E-04   0.1261375961E-03  -0.2253384206E-04   0.8762981155E-01  -0.9626179244E-03   0.0000000000E+00  -0.2248342160E-02
   0.2092324233E+00   0.2076704502E+00   0.6020175743E-04  -0.1206994376E-04   0.1204035149E-03  -0.2413988753E-04   0.8825974693E-01  -0.1238302571E-02   0.0000000000E+00  -0.1841832087E-02
   0.2141344815E+00   0.1992168324E+00   0.6250448475E-04  -0.1088121415E-04   0.1250089695E-03  -0.2176242831E-04   0.8614940356E-01  -0.1457954561E-02   0.0000000000E+00  -0.2520363185E-02
   0.3502999940E+00   0.2211291528E+00   0.1000000000E-03  -0.8234059863E-05   0.2000000000E-03  -0.1646811973E-04   0.8532106315E-01   0.4839247783E-03   0.0000000000E+00   0.8618078270E-06
   0.3249568624E+00   0.2155746323E+00   0.9289312402E-04  -0.7894245913E-05   0.1857862480E-03  -0.1578849183E-04   0.8457038601E-01   0.6001513721E-03   0.0000000000E+00  -0.9041622328E-03
   0.2680598422E+00   0.2245842808E+00   0.7621205540E-04  -0.9974054268E-05   0.1524241108E-03  -0.1994810854E-04   0.8871882512E-01   0.1064679328E-03   0.0000000000E+00  -0.1769089227E-02
   0.2533070632E+00   0.2162023559E+00   0.7239607971E-04  -0.9882039776E-05   0.1447921594E-03  -0.1976407955E-04   0.8767200224E-01  -0.1485191759E-04   0.0000000000E+00  -0.2350023408E-02
   0.2581165128E+00   0.2246166083E+00   0.7326393484E-04  -0.1039888997E-04   0.1465278697E-03  -0.2079777995E-04   0.8926990633E-01   0.4862167018E-04   0.0000000000E+00  -0.1826404184E-02
   0.2482954361E+00   0.2246469537E+00   0.7033170703E-04  -0.1088844476E-04   0.1406634141E-03  -0.2177688951E-04   0.8989096876E-01  -0.7146691055E-04   0.0000000000E+00  -0.1815341404E-02
   0.1167133650E+00   0.2161542237E+00   0.3130667366E-04  -0.2593108493E-04   0.6261334731E-04  -0.5186216987E-04   0.8853332601E-01  -0.1895615650E-02   0.0000000000E+00   0.6865070007E-02
   0.1215928534E+00   0.2246030215E+00   0.3163145354E-04  -0.2582049334E-04   0.6326290708E-04  -0.5164098668E-04   0.8900755412E-01  -0.1297087616E-02   0.0000000000E+00   0.5231741477E-02
   0.1118509239E+00   0.2245935179E+00   0.2876128549E-04  -0.2762738249E-04   0.5752257098E-04  -0.5525476498E-04   0.8716142098E-01  -0.1124533927E-02   0.0000000000E+00   0.5970310526E-02
   0.1055426992E+00   0.6681938579E-01   0.6190273153E-04  -0.9759903914E-05   0.1238054631E-03  -0.1951980783E-04   0.3989451897E-01  -0.1861897779E-01   0.0000000000E+00  -0.1785913056E-01
   0.8244781657E-01   0.2242445864E+00   0.2047075599E-04  -0.3315286352E-04   0.4094151199E-04  -0.6630572704E-04   0.8234938376E-01  -0.3944072404E-03   0.0000000000E+00   0.7612027953E-02
   0.1458821533E+00   0.1992198154E+00   0.4227741769E-04  -0.1910087826E-04   0.8455483539E-04  -0.3820175652E-04   0.8964958834E-01  -0.4137672122E-02   0.0000000000E+00   0.3807974858E-02
   0.1357766425E+00   0.1822956008E+00   0.4143651361E-04  -0.1896574946E-04   0.8287302722E-04  -0.3793149892E-04   0.8993723368E-01  -0.6754681736E-02   0.0000000000E+00   0.4308319715E-02
   0.1506954280E+00   0.1907097797E+00   0.4484234769E-04  -0.1744610304E-04   0.8968469538E-04  -0.3489220607E-04   0.8881667371E-01  -0.5215374943E-02   0.0000000000E+00   0.2612068884E-02
   0.1408293737E+00   0.1907576906E+00   0.4184890828E-04  -0.1903913309E-04   0.8369781655E-04  -0.3807826617E-04   0.8978176379E-01  -0.5420211519E-02   0.0000000000E+00   0.4051814268E-02
   0.1456427501E+00   0.1822478369E+00   0.4444770361E-04  -0.1732368866E-04   0.8889540722E-04  -0.3464737733E-04   0.8896038939E-01  -0.6473225003E-02   0.0000000000E+00   0.2819242580E-02
   0.2200660761E+00   0.2688936158E-01   0.8302104298E-04  -0.1700721126E-06   0.1660420860E-03  -0.3401442251E-06   0.3490001407E-01   0.7406605706E-02   0.0000000000E+00  -0.5657713888E-02
   0.2042671307E+00   0.3564638112E-01   0.8071021745E-04  -0.3780273833E-06   0.1614204349E-03  -0.7560547666E-06   0.3396286405E-01   0.4814793327E-02   0.0000000000E+00  -0.8809846919E-02
   0.1937589528E+00   0.3550861347E-01   0.7960793480E-04  -0.4708116405E-06   0.1592158696E-03  -0.9416232809E-06   0.3198629992E-01   0.3055481261E-02   0.0000000000E+00  -0.9900964660E-02
   0.1885564483E+00   0.2660101060E-01   0.7988541916E-04  -0.3422318862E-06   0.1597708383E-03  -0.6844637723E-06   0.2794013213E-01   0.2850896293E-02   0.0000000000E+00  -0.8063773490E-02
   0.1990642228E+00   0.2673872375E-01   0.8085794556E-04  -0.2675831554E-06   0.1617158911E-03  -0.5351663109E-06   0.3031928330E-01   0.4663060142E-02   0.0000000000E+00  -0.7226327846E-02
   0.1751110856E+00   0.1821626487E+00   0.5322218638E-04  -0.1317043412E-04   0.1064443728E-03  -0.2634086824E-04   0.8608071048E-01  -0.5004917469E-02   0.0000000000E+00  -0.9926223130E-03
   0.1653872903E+00   0.1991775550E+00   0.4816144359E-04  -0.1617034651E-04   0.9632288719E-04  -0.3234069302E-04   0.8891726067E-01  -0.3604926845E-02   0.0000000000E+00   0.1347159797E-02
   0.1653099843E+00   0.1821813558E+00   0.5034243689E-04  -0.1442506619E-04   0.1006848738E-03  -0.2885013238E-04   0.8701728652E-01  -0.5606468224E-02   0.0000000000E+00   0.1541208713E-03
   0.1702491951E+00   0.1906701594E+00   0.5069401778E-04  -0.1465387220E-04   0.1013880356E-03  -0.2930774440E-04   0.8747386288E-01  -0.4387848579E-02   0.0000000000E+00   0.1939186575E-03
   0.1604479588E+00   0.1906886138E+00   0.4777426717E-04  -0.1599272011E-04   0.9554853433E-04  -0.3198544021E-04   0.8849347935E-01  -0.4818204635E-02   0.0000000000E+00   0.1378552293E-02
   0.1848794967E+00   0.1991659096E+00   0.5396690285E-04  -0.1371447935E-04   0.1079338057E-03  -0.2742895870E-04   0.8790103059E-01  -0.2788404645E-02   0.0000000000E+00  -0.6399698509E-03
   0.1751334165E+00   0.1991719098E+00   0.5107448885E-04  -0.1488338718E-04   0.1021489777E-03  -0.2976677437E-04   0.8845334762E-01  -0.3181491957E-02   0.0000000000E+00   0.3183114976E-03
   0.1800094296E+00   0.2076476479E+00   0.5150020490E-04  -0.1511104754E-04   0.1030004098E-03  -0.3022209507E-04   0.8938393861E-01  -0.2283880675E-02   0.0000000000E+00   0.1190300261E-03
   0.1702632230E+00   0.2076534316E+00   0.4856532471E-04  -0.1635212685E-04   0.9713064941E-04  -0.3270425369E-04   0.8992157639E-01  -0.2551822684E-02   0.0000000000E+00   0.1056146025E-02
   0.1937513053E+00   0.5329007831E-01   0.7759044525E-04  -0.9803952943E-06   0.1551808905E-03  -0.1960790589E-05   0.3871117550E-01   0.9278369654E-03   0.0000000000E+00  -0.1298730827E-01
   0.2147284847E+00   0.5363318350E-01   0.8030091318E-04  -0.6865989908E-06   0.1606018264E-03  -0.1373197982E-05   0.4133423849E-01   0.4334959264E-02   0.0000000000E+00  -0.1040774592E-01
   0.1990096104E+00   0.4446838464E-01   0.7927846433E-04  -0.6269526244E-06   0.1585569287E-03  -0.1253905249E-05   0.3620621925E-01   0.2881271314E-02   0.0000000000E+00  -0.1082186596E-01
   0.2094978272E+00   0.4463982702E-01   0.8051207648E-04  -0.5174257932E-06   0.1610241530E-03  -0.1034851586E-05   0.3752101075E-01   0.4491713287E-02   0.0000000000E+00  -0.9694327723E-02
   0.2042398580E+00   0.5346168071E-01   0.7893065889E-04  -0.8162980250E-06   0.1578613178E-03  -0.1632596050E-05   0.4020624643E-01   0.2685382541E-02   0.0000000000E+00  -0.1167119932E-01
   0.1994942145E+00   0.2076572179E+00   0.5732049434E-04  -0.1297402200E-04   0.1146409887E-03  -0.2594804399E-04   0.8860660674E-01  -0.1618122538E-02   0.0000000000E+00  -0.1319807312E-02
   0.1897474785E+00   0.2076473102E+00   0.5441781737E-04  -0.1398660623E-04   0.1088356347E-03  -0.2797321246E-04   0.8922136337E-01  -0.1911007726E-02   0.0000000000E+00  -0.6482065341E-03
   0.1946261305E+00   0.1991759380E+00   0.5683548655E-04  -0.1266133958E-04   0.1136709731E-03  -0.2532267916E-04   0.8734592427E-01  -0.2328997830E-02   0.0000000000E+00  -0.1387006482E-02
   0.2435974974E+00   0.1993178594E+00   0.7088648240E-04  -0.8920214752E-05   0.1417729648E-03  -0.1784042950E-04   0.8438577875E-01  -0.2958074465E-03   0.0000000000E+00  -0.3259704069E-02
   0.2337468826E+00   0.1992829400E+00   0.6810686988E-04  -0.9488349477E-05   0.1362137398E-03  -0.1897669895E-04   0.8495592942E-01  -0.6671730094E-03   0.0000000000E+00  -0.3115794037E-02
   0.2385992337E+00   0.2077517814E+00   0.6876656722E-04  -0.9933878422E-05   0.1375331344E-03  -0.1986775684E-04   0.8656200719E-01  -0.3826821155E-03   0.0000000000E+00  -0.2706720805E-02
   0.2287483872E+00   0.2077166930E+00   0.6591472975E-04  -0.1055834784E-04   0.1318294595E-03  -0.2111669568E-04   0.8716936931E-01  -0.6193553027E-03   0.0000000000E+00  -0.2536450787E-02
   0.2384421343E+00   0.2246385401E+00   0.6737209942E-04  -0.1145296675E-04   0.1347441988E-03  -0.2290593350E-04   0.9045337457E-01  -0.1481719295E-03   0.0000000000E+00  -0.1741684395E-02
   0.5027760281E-01   0.1848189563E+00   0.1476236835E-04  -0.3560289261E-04   0.2952473670E-04  -0.7120578522E-04   0.9170391592E-01   0.4892590281E-02   0.0000000000E+00   0.1114083787E-01
   0.4201982600E-01   0.1894782920E+00   0.1202790116E-04  -0.3718865218E-04   0.2405580233E-04  -0.7437730436E-04   0.8952295321E-01   0.5857488919E-02   0.0000000000E+00   0.9611053761E-02
   0.4205290582E-01   0.1798481513E+00   0.1259140673E-04  -0.3651724180E-04   0.2518281346E-04  -0.7303448359E-04   0.9353574448E-01   0.7546583106E-02   0.0000000000E+00   0.1000277049E-01
   0.2918225362E-01   0.2498721843E+00   0.5194972480E-05  -0.4260521695E-04   0.1038994496E-04  -0.8521043391E-04   0.5565538472E-01  -0.1127607672E-03   0.0000000000E+00   0.9228861770E-04
   0.3436048231E-01   0.2248755058E+00   0.8068635399E-05  -0.4054241540E-04   0.1613727080E-04  -0.8108483080E-04   0.7256176558E-01   0.1786591089E-02   0.0000000000E+00   0.5229581793E-02
   0.4961355395E-01   0.1930837658E+00   0.1402194910E-04  -0.3632806807E-04   0.2804389820E-04  -0.7265613614E-04   0.8836551963E-01   0.4165452277E-02   0.0000000000E+00   0.1056197567E-01
   0.8732667683E-01   0.2158019676E+00   0.2280414483E-04  -0.3151648286E-04   0.4560828966E-04  -0.6303296572E-04   0.8495606005E-01  -0.7368908922E-03   0.0000000000E+00   0.9120019874E-02
   0.1264555621E+00   0.2161590498E+00   0.3421370565E-04  -0.2413840080E-04   0.6842741130E-04  -0.4827680160E-04   0.8947165440E-01  -0.1937827008E-02   0.0000000000E+00   0.5826527629E-02
   0.1069514660E+00   0.2160982200E+00   0.2843332295E-04  -0.2777533203E-04   0.5686664590E-04  -0.5555066406E-04   0.8752847281E-01  -0.1554023470E-02   0.0000000000E+00   0.7767067737E-02
   0.2632502657E+00   0.2161701209E+00   0.7529190056E-04  -0.9431373974E-05   0.1505838011E-03  -0.1886274795E-04   0.8711298871E-01   0.1064911342E-03   0.0000000000E+00  -0.2297843069E-02
   0.2434539818E+00   0.2161940715E+00   0.6950959827E-04  -0.1039815988E-04   0.1390191965E-03  -0.2079631975E-04   0.8823416779E-01  -0.1759224814E-03   0.0000000000E+00  -0.2287977333E-02
   0.3159202144E+00   0.1729676723E+00   0.9148679703E-04  -0.4788217026E-05   0.1829735941E-03  -0.9576434052E-05   0.7535803763E-01   0.2523571275E-02   0.0000000000E+00  -0.2105965717E-02
   0.3158911663E+00   0.1826648600E+00   0.9120177094E-04  -0.5457669937E-05   0.1824035419E-03  -0.1091533987E-04   0.7759116573E-01   0.1981614292E-02   0.0000000000E+00  -0.1924136673E-02
   0.3246588488E+00   0.1777745090E+00   0.9355225321E-04  -0.5030013151E-05   0.1871045064E-03  -0.1006002630E-04   0.7637441987E-01   0.2366833363E-02   0.0000000000E+00  -0.1525224050E-02
   0.2982113165E+00   0.2240608093E+00   0.8504917782E-04  -0.9023238729E-05   0.1700983556E-03  -0.1804647746E-04   0.8704899199E-01   0.3150099164E-03   0.0000000000E+00  -0.1361543410E-02
   0.2768830353E-01   0.1183998122E+00   0.1397030850E-04  -0.3463827559E-04   0.2794061699E-04  -0.6927655118E-04   0.1482373261E+00   0.2207481956E-01   0.0000000000E+00  -0.7805054896E-02
   0.2985983022E+00   0.1763044362E-01   0.9294773763E-04  -0.1902730446E-07   0.1858954753E-03  -0.3805460891E-07   0.4367513614E-01   0.1259658347E-01   0.0000000000E+00  -0.1184811334E-02
   0.2882345426E+00   0.1779605572E-01   0.9157619610E-04  -0.2319351455E-07   0.1831523922E-03  -0.4638702909E-07   0.4306032280E-01   0.1230777976E-01   0.0000000000E+00  -0.1473608034E-02
   0.2931866648E+00   0.8815227600E-02   0.9230794514E-04  -0.7586607161E-08   0.1846158903E-03  -0.1517321432E-07   0.4291324831E-01   0.1252482113E-01   0.0000000000E+00  -0.6499759043E-03
   0.3086164306E+00   0.0000000000E+00   0.9436452620E-04   0.0000000000E+00   0.1887290524E-03   0.0000000000E+00   0.4376694757E-01   0.1302479012E-01   0.0000000000E+00   0.1378217697E-04
   0.2981956152E+00   0.0000000000E+00   0.9298807049E-04   0.0000000000E+00   0.1859761410E-03   0.0000000000E+00   0.4322676382E-01   0.1282453377E-01   0.0000000000E+00  -0.2612496335E-05
   0.3036074374E+00   0.8815231878E-02   0.9367979597E-04  -0.6160572826E-08   0.1873595919E-03  -0.1232114565E-07   0.4364832504E-01   0.1279292375E-01   0.0000000000E+00  -0.5368589713E-03
   0.3073286963E+00   0.1679269538E-01   0.9412410096E-04  -0.1510692137E-07   0.1882482019E-03  -0.3021384274E-07   0.4422260258E-01   0.1283014802E-01   0.0000000000E+00  -0.9301635200E-03
   0.3123378043E+00   0.7977475910E-02   0.9484710055E-04  -0.4489969292E-08   0.1896942011E-03  -0.8979938584E-08   0.4407604502E-01   0.1299852863E-01   0.0000000000E+00  -0.3884350686E-03
   0.2516092473E+00   0.2703823847E-01   0.8669875689E-04  -0.9327782156E-07   0.1733975138E-03  -0.1865556431E-06   0.4009961772E-01   0.1011070966E-01   0.0000000000E+00  -0.3804735442E-02
   0.2662258180E+00   0.6956014111E-01   0.8656701014E-04  -0.6305626945E-06   0.1731340203E-03  -0.1261125389E-05   0.4959164351E-01   0.8018206585E-02   0.0000000000E+00  -0.6394073170E-02
   0.2470390186E+00   0.7419725027E-01   0.8318285718E-04  -0.9180095456E-06   0.1663657144E-03  -0.1836019091E-05   0.5001263939E-01   0.5978385029E-02   0.0000000000E+00  -0.8384662420E-02
   0.2655991082E+00   0.7801037796E-01   0.8592238809E-04  -0.8501463385E-06   0.1718447762E-03  -0.1700292677E-05   0.5173948401E-01   0.7158893644E-02   0.0000000000E+00  -0.6715445237E-02
   0.2560055266E+00   0.8032889104E-01   0.8416219050E-04  -0.1010186306E-05   0.1683243810E-03  -0.2020372611E-05   0.5204164326E-01   0.6235601024E-02   0.0000000000E+00  -0.7647402687E-02
   0.2566324708E+00   0.7187873772E-01   0.8489494069E-04  -0.7602941129E-06   0.1697898814E-03  -0.1520588226E-05   0.4977461324E-01   0.7015837931E-02   0.0000000000E+00  -0.7369461146E-02
   0.2095408280E+00   0.2677815679E-01   0.8190633821E-04  -0.2114364213E-06   0.1638126764E-03  -0.4228728426E-06   0.3300185594E-01   0.6174349551E-02   0.0000000000E+00  -0.6398471513E-02
   0.2147925444E+00   0.3575766805E-01   0.8187513888E-04  -0.3080495154E-06   0.1637502778E-03  -0.6160990309E-06   0.3615431400E-01   0.6208451093E-02   0.0000000000E+00  -0.7830178045E-02
   0.1723383838E+00   0.5294120332E-01   0.7494861292E-04  -0.1485091907E-05   0.1498972258E-03  -0.2970183815E-05   0.3569588631E-01  -0.3797359780E-02   0.0000000000E+00  -0.1593162822E-01
   0.1830447907E+00   0.5311574307E-01   0.7625391288E-04  -0.1198643643E-05   0.1525078258E-03  -0.2397287286E-05   0.3740233762E-01  -0.1370450122E-02   0.0000000000E+00  -0.1443628966E-01
   0.1777951859E+00   0.4415619494E-01   0.7692462309E-04  -0.9669195152E-06   0.1538492462E-03  -0.1933839030E-05   0.3228416785E-01  -0.1405330993E-02   0.0000000000E+00  -0.1336587522E-01
   0.1885011598E+00   0.4433046127E-01   0.7808561117E-04  -0.7716417708E-06   0.1561712223E-03  -0.1543283542E-05   0.3385370276E-01   0.9539640691E-03   0.0000000000E+00  -0.1210758234E-01
   0.2326390218E+00   0.8725466214E-01   0.7952494788E-04  -0.1613018501E-05   0.1590498958E-03  -0.3226037001E-05   0.5380806699E-01   0.3035058803E-02   0.0000000000E+00  -0.1006703387E-01
   0.2149606821E+00   0.8963131051E-01   0.7607635968E-04  -0.2146128776E-05   0.1521527194E-03  -0.4292257552E-05   0.5484479203E-01   0.2363794038E-03   0.0000000000E+00  -0.1185237223E-01
   0.2248437471E+00   0.7173215852E-01   0.7988236173E-04  -0.1126658740E-05   0.1597647235E-03  -0.2253317479E-05   0.4833797153E-01   0.3653173383E-02   0.0000000000E+00  -0.1059812606E-01
   0.2237999053E+00   0.8844305497E-01   0.7782076676E-04  -0.1857942075E-05   0.1556415335E-03  -0.3715884149E-05   0.5422638007E-01   0.1620634007E-02   0.0000000000E+00  -0.1095594949E-01
   0.2199024554E+00   0.8068189949E-01   0.7806214213E-04  -0.1581403866E-05   0.1561242843E-03  -0.3162807732E-05   0.5158742256E-01   0.1955557861E-02   0.0000000000E+00  -0.1123433614E-01
   0.2287413255E+00   0.7949343782E-01   0.7968384093E-04  -0.1359459936E-05   0.1593676819E-03  -0.2718919873E-05   0.5105256489E-01   0.3307669662E-02   0.0000000000E+00  -0.1033663939E-01
   0.2359256224E+00   0.5426735170E-01   0.8313613426E-04  -0.5062666928E-06   0.1662722685E-03  -0.1012533386E-05   0.4368805561E-01   0.6830056652E-02   0.0000000000E+00  -0.8209416124E-02
   0.2253269989E+00   0.5395029644E-01   0.8170264371E-04  -0.5868211291E-06   0.1634052874E-03  -0.1173642258E-05   0.4269367424E-01   0.5635293968E-02   0.0000000000E+00  -0.9283927123E-02
   0.2200236062E+00   0.4475116411E-01   0.8179874739E-04  -0.4306967901E-06   0.1635974948E-03  -0.8613935801E-06   0.3942939473E-01   0.5904597963E-02   0.0000000000E+00  -0.8591905408E-02
   0.2306218774E+00   0.4506817285E-01   0.8311981140E-04  -0.3656501266E-06   0.1662396228E-03  -0.7313002532E-06   0.4060089882E-01   0.7050245291E-02   0.0000000000E+00  -0.7631336788E-02
   0.1573808547E+00   0.2626166782E-01   0.7748789262E-04  -0.8012256929E-06   0.1549757852E-03  -0.1602451386E-05   0.1769918165E-01  -0.5477757256E-02   0.0000000000E+00  -0.1069520171E-01
   0.3190373005E+00   0.0000000000E+00   0.9575883778E-04   0.0000000000E+00   0.1915176756E-03   0.0000000000E+00   0.4436827032E-01   0.1320048892E-01   0.0000000000E+00   0.2646563469E-04
   0.3070284845E+00   0.5399867700E-01   0.9346417655E-04  -0.2278990839E-06   0.1869283531E-03  -0.4557981679E-06   0.4825494940E-01   0.1112458544E-01   0.0000000000E+00  -0.2620628570E-02
   0.3051485205E+00   0.2672358934E-01   0.9372115093E-04  -0.3988518021E-07   0.1874423019E-03  -0.7977036041E-07   0.4472737250E-01   0.1239896829E-01   0.0000000000E+00  -0.1493523501E-02
   0.7477435316E-01   0.1105827534E+00   0.3570268817E-04  -0.2287588279E-04   0.7140537634E-04  -0.4575176557E-04   0.1049486117E+00  -0.5057938129E-02   0.0000000000E+00  -0.8583543543E-02
   0.6522811430E-01   0.1061512682E+00   0.3397789961E-04  -0.2503892293E-04   0.6795579922E-04  -0.5007784586E-04   0.1102492786E+00   0.3225954486E-02   0.0000000000E+00  -0.1605859091E-01
   0.7409926705E-01   0.9983246604E-01   0.3970978323E-04  -0.2187298682E-04   0.7941956645E-04  -0.4374597364E-04   0.9407570503E-01  -0.1903298302E-02   0.0000000000E+00  -0.1638684347E-01
   0.8423311061E-01   0.9266818992E-01   0.4595700277E-04  -0.1819952809E-04   0.9191400555E-04  -0.3639905618E-04   0.8299920281E-01  -0.6046653171E-02   0.0000000000E+00  -0.2000781653E-01
   0.1263560358E+00   0.1992928448E+00   0.3634394628E-04  -0.2247371711E-04   0.7268789257E-04  -0.4494743423E-04   0.8994421557E-01  -0.4135348109E-02   0.0000000000E+00   0.6503571427E-02
   0.1159394513E+00   0.1826730230E+00   0.3526308347E-04  -0.2263466212E-04   0.7052616694E-04  -0.4526932425E-04   0.9151802253E-01  -0.6210667221E-02   0.0000000000E+00   0.7457777018E-02
   0.1310662828E+00   0.1907942038E+00   0.3886892440E-04  -0.2072605238E-04   0.7773784880E-04  -0.4145210476E-04   0.8991539457E-01  -0.5436233518E-02   0.0000000000E+00   0.5418758898E-02
   0.1211477534E+00   0.1909829150E+00   0.3580814069E-04  -0.2255800655E-04   0.7161628139E-04  -0.4511601311E-04   0.9067547804E-01  -0.5241491358E-02   0.0000000000E+00   0.6947337879E-02
   0.1258580858E+00   0.1824844585E+00   0.3836126500E-04  -0.2074883752E-04   0.7672252999E-04  -0.4149767504E-04   0.9073543172E-01  -0.6480202867E-02   0.0000000000E+00   0.5891356875E-02
   0.1171820967E+00   0.6836261691E-01   0.6320523300E-04  -0.7522297836E-05   0.1264104660E-03  -0.1504459567E-04   0.4453312645E-01  -0.1996375462E-01   0.0000000000E+00  -0.2026427030E-01
   0.1136501253E+00   0.5834824334E-01   0.6622475363E-04  -0.7133553287E-05   0.1324495073E-03  -0.1426710657E-04   0.3217734827E-01  -0.1965190069E-01   0.0000000000E+00  -0.1860749670E-01
   0.1488933693E+00   0.5214625977E-01   0.7228976207E-04  -0.2487242564E-05   0.1445795241E-03  -0.4974485127E-05   0.3157263150E-01  -0.1071318790E-01   0.0000000000E+00  -0.1887271949E-01
   0.1556848562E+00   0.4344336701E-01   0.7476340570E-04  -0.1614262952E-05   0.1495268114E-03  -0.3228525904E-05   0.2712573846E-01  -0.7701909128E-02   0.0000000000E+00  -0.1578840198E-01
   0.1674066959E+00   0.4384052526E-01   0.7587264252E-04  -0.1217681577E-05   0.1517452850E-03  -0.2435363154E-05   0.2941274418E-01  -0.3983978082E-02   0.0000000000E+00  -0.1471464775E-01
   0.1606158121E+00   0.5254398455E-01   0.7359538146E-04  -0.1901816824E-05   0.1471907629E-03  -0.3803633648E-05   0.3394445664E-01  -0.7184628207E-02   0.0000000000E+00  -0.1740116874E-01
   0.1215346922E+00   0.2077234974E+00   0.3382140919E-04  -0.2421485077E-04   0.6764281837E-04  -0.4842970154E-04   0.8918811975E-01  -0.2985010856E-02   0.0000000000E+00   0.6714787087E-02
   0.1117890347E+00   0.2077810621E+00   0.3089323914E-04  -0.2605695566E-04   0.6178647827E-04  -0.5211391132E-04   0.8901176570E-01  -0.2746287554E-02   0.0000000000E+00   0.7884156208E-02
   0.1166102753E+00   0.1993504763E+00   0.3337908652E-04  -0.2429390373E-04   0.6675817304E-04  -0.4858780747E-04   0.8988370026E-01  -0.3723459885E-02   0.0000000000E+00   0.7791570731E-02
   0.8490753354E-01   0.1034182835E+00   0.4173131191E-04  -0.1926448470E-04   0.8346262382E-04  -0.3852896940E-04   0.9428846356E-01  -0.1006392705E-01   0.0000000000E+00  -0.1216864115E-01
   0.3529686223E-01   0.1446941137E+00   0.1306247510E-04  -0.3523843840E-04   0.2612495021E-04  -0.7047687679E-04   0.1145259049E+00   0.1482068109E-01   0.0000000000E+00   0.6520990390E-02
   0.3654357197E-01   0.1232962070E+00   0.1685868934E-04  -0.3349832185E-04   0.3371737868E-04  -0.6699664371E-04   0.1336608308E+00   0.1571085412E-01   0.0000000000E+00  -0.3561605195E-02
   0.3041823714E+00   0.2145395239E+00   0.8706946532E-04  -0.8097695124E-05   0.1741389306E-03  -0.1619539025E-04   0.8489753085E-01   0.5335107055E-03   0.0000000000E+00  -0.1571604075E-02
   0.4267984878E-01   0.1702023672E+00   0.1340689413E-04  -0.3575526386E-04   0.2681378826E-04  -0.7151052771E-04   0.9820435593E-01   0.8450182343E-02   0.0000000000E+00   0.1000774642E-01
   0.5090473944E-01   0.1751734055E+00   0.1564241258E-04  -0.3476317988E-04   0.3128482517E-04  -0.6952635976E-04   0.9582391919E-01   0.5677805302E-02   0.0000000000E+00   0.1126347308E-01
   0.7067905608E-01   0.1571705739E+00   0.2392709243E-04  -0.2925271326E-04   0.4785418485E-04  -0.5850542652E-04   0.1014125071E+00  -0.5667556463E-03   0.0000000000E+00   0.1050118738E-01
   0.6110541304E-01   0.1613489201E+00   0.2020771280E-04  -0.3168628588E-04   0.4041542560E-04  -0.6337257175E-04   0.1011869907E+00   0.2890184195E-02   0.0000000000E+00   0.1090679100E-01
   0.6229099463E-01   0.1510429652E+00   0.2187061152E-04  -0.3046894581E-04   0.4374122304E-04  -0.6093789162E-04   0.1048012274E+00   0.2374257702E-02   0.0000000000E+00   0.9208384165E-02
   0.8506153304E-01   0.1701770567E+00   0.2704984609E-04  -0.2753743023E-04   0.5409969219E-04  -0.5507486047E-04   0.9605344202E-01  -0.3733953604E-02   0.0000000000E+00   0.1068094155E-01
   0.8068337862E-01   0.1852650677E+00   0.2400020529E-04  -0.2998977518E-04   0.4800041058E-04  -0.5997955035E-04   0.9221367507E-01  -0.1599653695E-02   0.0000000000E+00   0.1158247897E-01
   0.6752352597E-01   0.1766055662E+00   0.2074549088E-04  -0.3179460663E-04   0.4149098175E-04  -0.6358921326E-04   0.9501494591E-01   0.1033742277E-02   0.0000000000E+00   0.1207624638E-01
   0.8287231990E-01   0.1777209896E+00   0.2547973187E-04  -0.2879045344E-04   0.5095946373E-04  -0.5758090688E-04   0.9412137708E-01  -0.2449675295E-02   0.0000000000E+00   0.1116605714E-01
   0.7410350514E-01   0.1809353196E+00   0.2239171296E-04  -0.3089148128E-04   0.4478342591E-04  -0.6178296256E-04   0.9338488158E-01  -0.4398472705E-03   0.0000000000E+00   0.1170745361E-01
   0.7629241536E-01   0.1733911667E+00   0.2385838796E-04  -0.2971177159E-04   0.4771677592E-04  -0.5942354317E-04   0.9581462729E-01  -0.1358483011E-02   0.0000000000E+00   0.1143970545E-01
   0.2938762975E+00   0.2663931281E-01   0.9219083388E-04  -0.4582986105E-07   0.1843816678E-03  -0.9165972209E-07   0.4412009924E-01   0.1210580512E-01   0.0000000000E+00  -0.1918835727E-02
   0.3068279400E+00   0.6246034076E-01   0.9321432228E-04  -0.3376787413E-06   0.1864286446E-03  -0.6753574826E-06   0.4965213178E-01   0.1050447326E-01   0.0000000000E+00  -0.2944998753E-02
   0.3072922999E+00   0.7216435896E-01   0.9300895047E-04  -0.4984472613E-06   0.1860179009E-03  -0.9968945227E-06   0.5153028555E-01   0.9845610335E-02   0.0000000000E+00  -0.3120947357E-02
   0.9668747941E-01   0.1837855169E+00   0.2912883778E-04  -0.2658737624E-04   0.5825767557E-04  -0.5317475248E-04   0.9233393595E-01  -0.4240250823E-02   0.0000000000E+00   0.1016938575E-01
   0.1063134661E+00   0.1832293452E+00   0.3219601830E-04  -0.2458593207E-04   0.6439203661E-04  -0.4917186415E-04   0.9198763808E-01  -0.5220534430E-02   0.0000000000E+00   0.8878236438E-02
   0.1114018949E+00   0.1910403997E+00   0.3281030198E-04  -0.2442711596E-04   0.6562060397E-04  -0.4885423192E-04   0.9057914249E-01  -0.4691279444E-02   0.0000000000E+00   0.8244582706E-02
   0.1017760540E+00   0.1915967225E+00   0.2979168198E-04  -0.2638316480E-04   0.5958336395E-04  -0.5276632960E-04   0.9090999237E-01  -0.3962237769E-02   0.0000000000E+00   0.9536721534E-02
   0.2990659396E+00   0.1627384619E+00   0.8773553931E-04  -0.4344702225E-05   0.1754710786E-03  -0.8689404450E-05   0.7325487071E-01   0.2719431456E-02   0.0000000000E+00  -0.3300699204E-02
   0.2975989588E+00   0.1728621248E+00   0.8692360507E-04  -0.5042403071E-05   0.1738472101E-03  -0.1008480614E-04   0.7572405454E-01   0.2111271944E-02   0.0000000000E+00  -0.3098819157E-02
   0.3074929728E+00   0.1678531095E+00   0.8957626879E-04  -0.4552151533E-05   0.1791525376E-03  -0.9104303066E-05   0.7432307559E-01   0.2650365914E-02   0.0000000000E+00  -0.2692063598E-02
   0.3060261820E+00   0.1779767475E+00   0.8883800776E-04  -0.5258514130E-05   0.1776760155E-03  -0.1051702826E-04   0.7676680280E-01   0.2077981420E-02   0.0000000000E+00  -0.2511568319E-02
   0.3247088012E+00   0.1681837675E+00   0.9377206926E-04  -0.4392820554E-05   0.1875441385E-03  -0.8785641109E-05   0.7410119095E-01   0.2954587279E-02   0.0000000000E+00  -0.1626981241E-02
   0.3079712382E+00   0.2070508053E+00   0.8836372209E-04  -0.7419231926E-05   0.1767274442E-03  -0.1483846385E-04   0.8325784881E-01   0.8399066163E-03   0.0000000000E+00  -0.1688950845E-02
   0.2969958172E+00   0.2083147631E+00   0.8527406032E-04  -0.7728311339E-05   0.1705481206E-03  -0.1545662268E-04   0.8386413234E-01   0.6844490952E-03   0.0000000000E+00  -0.1999775764E-02
   0.2833824269E+00   0.1692444984E+00   0.8355963535E-04  -0.5086199751E-05   0.1671192707E-03  -0.1017239950E-04   0.7533505289E-01   0.1840142155E-02   0.0000000000E+00  -0.3910361338E-02
   0.2825802773E+00   0.1531886254E+00   0.8430776503E-04  -0.4044882806E-05   0.1686155301E-03  -0.8089765613E-05   0.7135067330E-01   0.2620945263E-02   0.0000000000E+00  -0.4516402267E-02
   0.2829813463E+00   0.1612166078E+00   0.8392678146E-04  -0.4552733625E-05   0.1678535629E-03  -0.9105467251E-05   0.7332980870E-01   0.2205227296E-02   0.0000000000E+00  -0.4213795864E-02
   0.2908230148E+00   0.1579635731E+00   0.8599025340E-04  -0.4182646107E-05   0.1719805068E-03  -0.8365292214E-05   0.7232627742E-01   0.2697235124E-02   0.0000000000E+00  -0.3890211006E-02
   0.2912242453E+00   0.1659915356E+00   0.8567310184E-04  -0.4696810317E-05   0.1713462037E-03  -0.9393620635E-05   0.7427835046E-01   0.2294230778E-02   0.0000000000E+00  -0.3614932197E-02
   0.3081739821E+00   0.1298311049E+00   0.9115468854E-04  -0.2389357750E-05   0.1823093771E-03  -0.4778715500E-05   0.6490358830E-01   0.5244092901E-02   0.0000000000E+00  -0.3292051987E-02
   0.2042099183E+00   0.7156762482E-01   0.7664975466E-04  -0.1514959824E-05   0.1532995093E-03  -0.3029919649E-05   0.4747296945E-01   0.4663699513E-03   0.0000000000E+00  -0.1303979817E-01
   0.2145268331E+00   0.7164995288E-01   0.7826602503E-04  -0.1301639276E-05   0.1565320501E-03  -0.2603278552E-05   0.4794565934E-01   0.2070993369E-02   0.0000000000E+00  -0.1180109582E-01
   0.2094695297E+00   0.6260057553E-01   0.7858455781E-04  -0.1043024017E-05   0.1571691156E-03  -0.2086048034E-05   0.4435131340E-01   0.2431289685E-02   0.0000000000E+00  -0.1169927983E-01
   0.2197860647E+00   0.6268271836E-01   0.8007457955E-04  -0.8914804672E-06   0.1601491591E-03  -0.1782960934E-05   0.4477059793E-01   0.3928112991E-02   0.0000000000E+00  -0.1054613032E-01
   0.2995334125E+00   0.1439959241E+00   0.8868684364E-04  -0.3214295380E-05   0.1773736873E-03  -0.6428590761E-05   0.6856967123E-01   0.3915631886E-02   0.0000000000E+00  -0.3706086919E-02
   0.3081055773E+00   0.1393079429E+00   0.9078409762E-04  -0.2862016955E-05   0.1815681952E-03  -0.5724033910E-05   0.6725934327E-01   0.4539628788E-02   0.0000000000E+00  -0.3165699140E-02
   0.3165638632E+00   0.1441590759E+00   0.9249274631E-04  -0.3040696754E-05   0.1849854926E-03  -0.6081393508E-05   0.6831690498E-01   0.4399040834E-02   0.0000000000E+00  -0.2501054293E-02
   0.3079917433E+00   0.1488471021E+00   0.9040043833E-04  -0.3382952366E-05   0.1808008767E-03  -0.6765904732E-05   0.6965089575E-01   0.3859429553E-02   0.0000000000E+00  -0.3030245659E-02
   0.2818848906E+00   0.7700421446E-01   0.8866585112E-04  -0.7085124887E-06   0.1773317022E-03  -0.1417024977E-05   0.5188957642E-01   0.8373536447E-02   0.0000000000E+00  -0.5309865774E-02
   0.2731052793E+00   0.6267356471E-01   0.8802143784E-04  -0.4508649021E-06   0.1760428757E-03  -0.9017298043E-06   0.4836939897E-01   0.8995984056E-02   0.0000000000E+00  -0.5447002671E-02
   0.2809347298E+00   0.6639561682E-01   0.8904225369E-04  -0.4846938827E-06   0.1780845074E-03  -0.9693877653E-06   0.4956730684E-01   0.9135413702E-02   0.0000000000E+00  -0.4990583096E-02
   0.2740552839E+00   0.7328218428E-01   0.8759298252E-04  -0.6673732846E-06   0.1751859650E-03  -0.1334746569E-05   0.5080373244E-01   0.8229151534E-02   0.0000000000E+00  -0.5837746016E-02
   0.3076173314E+00   0.8178566678E-01   0.9276312637E-04  -0.6994067582E-06   0.1855262527E-03  -0.1398813516E-05   0.5349504582E-01   0.9072785015E-02   0.0000000000E+00  -0.3317928696E-02
   0.2988458889E+00   0.7699617986E-01   0.9146395105E-04  -0.6250471498E-06   0.1829279021E-03  -0.1250094300E-05   0.5237712223E-01   0.9140922623E-02   0.0000000000E+00  -0.3902016615E-02
   0.3161852447E+00   0.1633330042E+00   0.9183388408E-04  -0.4160610625E-05   0.1836677682E-03  -0.8321221250E-05   0.7301061885E-01   0.3093846622E-02   0.0000000000E+00  -0.2249919825E-02
   0.1605262029E+00   0.2076575009E+00   0.4562296746E-04  -0.1770769294E-04   0.9124593491E-04  -0.3541538589E-04   0.8982593629E-01  -0.2846735204E-02   0.0000000000E+00   0.2042686917E-02
   0.1507736001E+00   0.2076785901E+00   0.4266704811E-04  -0.1918162188E-04   0.8533409622E-04  -0.3836324377E-04   0.9020906435E-01  -0.3025928653E-02   0.0000000000E+00   0.3199045784E-02
   0.1410400123E+00   0.2076917329E+00   0.3971644584E-04  -0.2076102579E-04   0.7943289167E-04  -0.4152205158E-04   0.8979844749E-01  -0.3143160928E-02   0.0000000000E+00   0.4326460019E-02
   0.1283234172E+00   0.8318105930E-01   0.6044773800E-04  -0.7475933361E-05   0.1208954760E-03  -0.1495186672E-04   0.5971935016E-01  -0.1817533012E-01   0.0000000000E+00  -0.1984508799E-01
   0.1284941056E+00   0.1030994833E+00   0.5461020367E-04  -0.9977907188E-05   0.1092204073E-03  -0.1995581438E-04   0.7509878545E-01  -0.1778373737E-01   0.0000000000E+00  -0.1442670089E-01
   0.1145070511E+00   0.9385396456E-01   0.5372437892E-04  -0.1111404528E-04   0.1074487578E-03  -0.2222809056E-04   0.7272718257E-01  -0.1870762307E-01   0.0000000000E+00  -0.1675852331E-01
   0.1284085229E+00   0.9314037913E-01   0.5744929045E-04  -0.8692156547E-05   0.1148985809E-03  -0.1738431309E-04   0.6753676147E-01  -0.1773972202E-01   0.0000000000E+00  -0.1720805313E-01
   0.1215003485E+00   0.9847690032E-01   0.5409051571E-04  -0.1048589296E-04   0.1081810314E-03  -0.2097178591E-04   0.7424569703E-01  -0.1822608307E-01   0.0000000000E+00  -0.1563836608E-01
   0.1214155504E+00   0.8851781909E-01   0.5719146956E-04  -0.9192603877E-05   0.1143829391E-03  -0.1838520775E-04   0.6582506203E-01  -0.1875113449E-01   0.0000000000E+00  -0.1802379491E-01
   0.7388861617E-01   0.1910637158E+00   0.2136375749E-04  -0.3187406423E-04   0.4272751498E-04  -0.6374812847E-04   0.9039002468E-01  -0.2020714777E-03   0.0000000000E+00   0.1150441134E-01
   0.6730876457E-01   0.1867340451E+00   0.1976255554E-04  -0.3274461699E-04   0.3952511107E-04  -0.6548923398E-04   0.9159195379E-01   0.1085347329E-02   0.0000000000E+00   0.1188549297E-01
   0.2584350139E+00   0.2078316221E+00   0.7444729178E-04  -0.8920626641E-05   0.1488945836E-03  -0.1784125328E-04   0.8550438725E-01   0.9505712398E-04   0.0000000000E+00  -0.2758263463E-02
   0.2484521587E+00   0.2077601489E+00   0.7160057810E-04  -0.9389692522E-05   0.1432011562E-03  -0.1877938504E-04   0.8604935347E-01  -0.9372490249E-04   0.0000000000E+00  -0.2790091034E-02
   0.1946461993E+00   0.1821907799E+00   0.5884142267E-04  -0.1103537241E-04   0.1176828453E-03  -0.2207074482E-04   0.8422485221E-01  -0.3575556069E-02   0.0000000000E+00  -0.2706531520E-02
   0.1897628879E+00   0.1906784044E+00   0.5641496101E-04  -0.1235254788E-04   0.1128299220E-03  -0.2470509576E-04   0.8604287400E-01  -0.3274524969E-02   0.0000000000E+00  -0.1658292516E-02
   0.1799952164E+00   0.1906642802E+00   0.5356712583E-04  -0.1344460886E-04   0.1071342517E-03  -0.2688921772E-04   0.8701907471E-01  -0.3798125889E-02   0.0000000000E+00  -0.7948604559E-03
   0.1848786980E+00   0.1821768900E+00   0.5605033958E-04  -0.1204432250E-04   0.1121006792E-03  -0.2408864501E-04   0.8510472210E-01  -0.4304748445E-02   0.0000000000E+00  -0.1893070494E-02
   0.2539131356E+00   0.1824219113E+00   0.7507253190E-04  -0.7027230345E-05   0.1501450638E-03  -0.1405446069E-04   0.7988499756E-01   0.1744847600E-03   0.0000000000E+00  -0.4192068469E-02
   0.2337963784E+00   0.1824526128E+00   0.6966980459E-04  -0.8043738630E-05   0.1393396092E-03  -0.1608747726E-04   0.8114062293E-01  -0.8887120821E-03   0.0000000000E+00  -0.4221880090E-02
   0.2487553949E+00   0.1908699591E+00   0.7300562350E-04  -0.7946631923E-05   0.1460112470E-03  -0.1589326385E-04   0.8213372472E-01  -0.1225807752E-03   0.0000000000E+00  -0.3723560760E-02
   0.2386968268E+00   0.1908852609E+00   0.7023859094E-04  -0.8473704766E-05   0.1404771819E-03  -0.1694740953E-04   0.8279741439E-01  -0.5169655562E-03   0.0000000000E+00  -0.3718152273E-02
   0.2438548043E+00   0.1824373714E+00   0.7238442918E-04  -0.7496533416E-05   0.1447688584E-03  -0.1499306683E-04   0.8046713274E-01  -0.3682029700E-03   0.0000000000E+00  -0.4236333252E-02
   0.2535802062E+00   0.1993894202E+00   0.7367905345E-04  -0.8426604852E-05   0.1473581069E-03  -0.1685320970E-04   0.8384146923E-01  -0.6786359830E-05   0.0000000000E+00  -0.3241208971E-02
   0.1312769707E+00   0.2077282454E+00   0.3675790474E-04  -0.2244821023E-04   0.7351580949E-04  -0.4489642045E-04   0.8993955286E-01  -0.3153050178E-02   0.0000000000E+00   0.5587724301E-02
   0.2921750755E+00   0.2002644833E+00   0.8427817301E-04  -0.7187562499E-05   0.1685563460E-03  -0.1437512500E-04   0.8227895773E-01   0.8379239402E-03   0.0000000000E+00  -0.2447574550E-02
   0.2898487443E+00   0.1913443233E+00   0.8406210164E-04  -0.6545911104E-05   0.1681242033E-03  -0.1309182221E-04   0.8035300171E-01   0.1146389306E-02   0.0000000000E+00  -0.2825127050E-02
   0.2883859435E+00   0.2077531456E+00   0.8289550143E-04  -0.7884801248E-05   0.1657910029E-03  -0.1576960250E-04   0.8406957047E-01   0.6319708847E-03   0.0000000000E+00  -0.2264523399E-02
   0.1556347512E+00   0.1991988595E+00   0.4522673089E-04  -0.1757751497E-04   0.9045346177E-04  -0.3515502993E-04   0.8934502061E-01  -0.3850478813E-02   0.0000000000E+00   0.2552401021E-02
   0.1361191091E+00   0.1992564800E+00   0.3931301896E-04  -0.2073734127E-04   0.7862603792E-04  -0.4147468253E-04   0.8987216339E-01  -0.4112279679E-02   0.0000000000E+00   0.5152686375E-02
   0.1995093533E+00   0.1906882039E+00   0.5922744705E-04  -0.1137571119E-04   0.1184548941E-03  -0.2275142238E-04   0.8551454070E-01  -0.2633493142E-02   0.0000000000E+00  -0.2358348345E-02
   0.2514939691E+00   0.1519923026E+00   0.7701202828E-04  -0.4844140333E-05   0.1540240566E-03  -0.9688280667E-05   0.7246363697E-01   0.7326598554E-03   0.0000000000E+00  -0.6012946030E-02
   0.2346795510E+00   0.1494282674E+00   0.7319000564E-04  -0.5353192853E-05   0.1463800113E-03  -0.1070638571E-04   0.7291847856E-01  -0.6710192561E-03   0.0000000000E+00  -0.6692051343E-02
   0.2482700182E+00   0.1359765460E+00   0.7771907094E-04  -0.3876653453E-05   0.1554381419E-03  -0.7753306905E-05   0.6830915777E-01   0.1132166177E-02   0.0000000000E+00  -0.7102103990E-02
   0.2430867551E+00   0.1507103358E+00   0.7510168907E-04  -0.5079079144E-05   0.1502033781E-03  -0.1015815829E-04   0.7264214154E-01   0.1605885183E-04   0.0000000000E+00  -0.6358679477E-02
   0.2414749313E+00   0.1427025377E+00   0.7550075163E-04  -0.4573762014E-05   0.1510015033E-03  -0.9147524027E-05   0.7063206942E-01   0.2349618716E-03   0.0000000000E+00  -0.6894081860E-02
   0.2498819418E+00   0.1439844518E+00   0.7734826431E-04  -0.4351067107E-05   0.1546965286E-03  -0.8702134214E-05   0.7038223484E-01   0.9051385679E-03   0.0000000000E+00  -0.6549622708E-02
   0.5868601513E-01   0.1908407251E+00   0.1683984463E-04  -0.3465863223E-04   0.3367968925E-04  -0.6931726446E-04   0.8968147397E-01   0.2734713994E-02   0.0000000000E+00   0.1124143505E-01
   0.6910099719E-01   0.1668879588E+00   0.2223959661E-04  -0.3056072620E-04   0.4447919322E-04  -0.6112145240E-04   0.9821727100E-01   0.4788727194E-03   0.0000000000E+00   0.1137055759E-01
   0.7787032608E-01   0.1636738677E+00   0.2549899367E-04  -0.2837509775E-04   0.5099798733E-04  -0.5675019549E-04   0.9835464767E-01  -0.2543381068E-02   0.0000000000E+00   0.1035188420E-01
   0.6517680776E-01   0.1168162860E+00   0.3014272018E-04  -0.2617500831E-04   0.6028544036E-04  -0.5235001663E-04   0.1137152278E+00   0.1184421500E-02   0.0000000000E+00  -0.5126536438E-02
   0.7641872468E-01   0.1346936498E+00   0.2967966124E-04  -0.2540240867E-04   0.5935932248E-04  -0.5080481735E-04   0.1059608465E+00  -0.4921181637E-02   0.0000000000E+00   0.4376304532E-02
   0.6599915947E-01   0.1288721555E+00   0.2718775708E-04  -0.2729915800E-04   0.5437551417E-04  -0.5459831601E-04   0.1108439659E+00  -0.1088040948E-03   0.0000000000E+00   0.1346631339E-02
   0.7559526819E-01   0.1226382203E+00   0.3226882847E-04  -0.2413155123E-04   0.6453765693E-04  -0.4826310246E-04   0.1055551186E+00  -0.5209807196E-02   0.0000000000E+00  -0.1417060459E-02
   0.2571774423E+00   0.3617493663E-01   0.8705244583E-04  -0.1507231763E-06   0.1741048917E-03  -0.3014463525E-06   0.4213120313E-01   0.1004062142E-01   0.0000000000E+00  -0.4616165361E-02
   0.2785314199E+00   0.3597089966E-01   0.8989962385E-04  -0.1094471808E-06   0.1797992477E-03  -0.2188943616E-06   0.4406384249E-01   0.1119009126E-01   0.0000000000E+00  -0.3343296023E-02
   0.2835124833E+00   0.2680491287E-01   0.9080109538E-04  -0.5401087970E-07   0.1816021908E-03  -0.1080217594E-06   0.4327680286E-01   0.1172888702E-01   0.0000000000E+00  -0.2315993225E-02
   0.2411861606E+00   0.4516186502E-01   0.8449085089E-04  -0.3106591420E-06   0.1689817018E-03  -0.6213182840E-06   0.4212162055E-01   0.8084550665E-02   0.0000000000E+00  -0.6703080086E-02
   0.2141929234E+00   0.1823043968E+00   0.6431214978E-04  -0.9348072190E-05   0.1286242996E-03  -0.1869614438E-04   0.8256708466E-01  -0.2154188068E-02   0.0000000000E+00  -0.3760433475E-02
   0.2044196186E+00   0.1822477367E+00   0.6159353458E-04  -0.1013977694E-04   0.1231870692E-03  -0.2027955388E-04   0.8334776607E-01  -0.2879568329E-02   0.0000000000E+00  -0.3273977221E-02
   0.2092828596E+00   0.1907450916E+00   0.6201353795E-04  -0.1050812961E-04   0.1240270759E-03  -0.2101625921E-04   0.8463906420E-01  -0.2108805256E-02   0.0000000000E+00  -0.2897476819E-02
   0.1937373839E+00   0.7150548245E-01   0.7500129515E-04  -0.1784681815E-05   0.1500025903E-03  -0.3569363630E-05   0.4716304512E-01  -0.1637825852E-02   0.0000000000E+00  -0.1437594225E-01
   0.1885084616E+00   0.6236683703E-01   0.7560218799E-04  -0.1473558180E-05   0.1512043760E-03  -0.2947116360E-05   0.4274535771E-01  -0.1397273360E-02   0.0000000000E+00  -0.1434765961E-01
   0.1989805261E+00   0.6242890026E-01   0.7709404018E-04  -0.1231446260E-05   0.1541880804E-03  -0.2462892520E-05   0.4304638021E-01   0.6509334441E-03   0.0000000000E+00  -0.1304632910E-01
   0.2572477199E+00   0.5435104478E-01   0.8613997136E-04  -0.3793730738E-06   0.1722799427E-03  -0.7587461475E-06   0.4551594521E-01   0.8683964265E-02   0.0000000000E+00  -0.6268790418E-02
   0.2518469712E+00   0.4520365613E-01   0.8591074166E-04  -0.2656899896E-06   0.1718214833E-03  -0.5313799792E-06   0.4302192788E-01   0.8933706799E-02   0.0000000000E+00  -0.5853473690E-02
   0.2625784436E+00   0.4532242775E-01   0.8736587391E-04  -0.2302833879E-06   0.1747317478E-03  -0.4605667758E-06   0.4421784085E-01   0.9681899281E-02   0.0000000000E+00  -0.5072477337E-02
   0.2822392684E+00   0.9624789784E-01   0.8767181302E-04  -0.1266151719E-05   0.1753436260E-03  -0.2532303439E-05   0.5657150504E-01   0.6749009108E-02   0.0000000000E+00  -0.5587649550E-02
   0.2907050854E+00   0.9143270588E-01   0.8944681123E-04  -0.1042974905E-05   0.1788936225E-03  -0.2085949810E-05   0.5545139316E-01   0.7582061777E-02   0.0000000000E+00  -0.4827292881E-02
   0.2908981856E+00   0.1010642421E+00   0.8900354254E-04  -0.1355963654E-05   0.1780070851E-03  -0.2711927308E-05   0.5784211908E-01   0.6825884009E-02   0.0000000000E+00  -0.4848265116E-02
   0.1486540810E+00   0.2561246874E-01   0.7703166956E-04  -0.1024787672E-05   0.1540633391E-03  -0.2049575344E-05   0.1460127295E-01  -0.9277716630E-02   0.0000000000E+00  -0.1094275417E-01
   0.1469573088E+00   0.4279367530E-01   0.7405893402E-04  -0.2002033658E-05   0.1481178680E-03  -0.4004067317E-05   0.2428068921E-01  -0.1083587174E-01   0.0000000000E+00  -0.1673873477E-01
   0.1406033970E+00   0.4660879016E-01   0.7263934622E-04  -0.2660045199E-05   0.1452786924E-03  -0.5320090399E-05   0.2576058026E-01  -0.1359973223E-01   0.0000000000E+00  -0.1747613623E-01
   0.2845694601E+00   0.4571755841E-01   0.9042603049E-04  -0.1804977324E-06   0.1808520610E-03  -0.3609954647E-06   0.4592564650E-01   0.1080367077E-01   0.0000000000E+00  -0.3632476227E-02
   0.2739465944E+00   0.4604030918E-01   0.8891414353E-04  -0.2069059656E-06   0.1778282871E-03  -0.4138119312E-06   0.4511336384E-01   0.1027294102E-01   0.0000000000E+00  -0.4335003816E-02
   0.2905276974E+00   0.8181082364E-01   0.8987246775E-04  -0.7776521913E-06   0.1797449355E-03  -0.1555304383E-05   0.5322788322E-01   0.8419985503E-02   0.0000000000E+00  -0.4666181446E-02
   0.2820621344E+00   0.8662612860E-01   0.8818211968E-04  -0.9632001298E-06   0.1763642394E-03  -0.1926400260E-05   0.5421877116E-01   0.7519885305E-02   0.0000000000E+00  -0.5477537848E-02
   0.1426922420E+00   0.7226752109E-01   0.6641068066E-04  -0.4620635720E-05   0.1328213613E-03  -0.9241271440E-05   0.4817400216E-01  -0.1448571793E-01   0.0000000000E+00  -0.2033369682E-01
   0.1339900288E+00   0.6607904256E-01   0.6668093441E-04  -0.4910011795E-05   0.1333618688E-03  -0.9820023591E-05   0.4272862093E-01  -0.1639710726E-01   0.0000000000E+00  -0.2051934081E-01
   0.1370914881E+00   0.5601889931E-01   0.6992136353E-04  -0.3682095260E-05   0.1398427271E-03  -0.7364190519E-05   0.3306125603E-01  -0.1477879980E-01   0.0000000000E+00  -0.1984910243E-01
   0.1457933034E+00   0.6220718936E-01   0.6951381516E-04  -0.3454278753E-05   0.1390276303E-03  -0.6908557507E-05   0.3996649046E-01  -0.1291981783E-01   0.0000000000E+00  -0.1979455738E-01
   0.6516052556E-01   0.1398040750E+00   0.2464575220E-04  -0.2868633102E-04   0.4929150440E-04  -0.5737266204E-04   0.1087648242E+00   0.8807751303E-03   0.0000000000E+00   0.6558888791E-02
   0.1248147258E+00   0.1649437659E+00   0.4050860460E-04  -0.1887602235E-04   0.8101720919E-04  -0.3775204470E-04   0.9148387498E-01  -0.9571785073E-02   0.0000000000E+00   0.3914333384E-02
   0.1144979498E+00   0.1657264962E+00   0.3713026722E-04  -0.2093159545E-04   0.7426053444E-04  -0.4186319090E-04   0.9298562471E-01  -0.8657510512E-02   0.0000000000E+00   0.5823508829E-02
   0.1203769312E+00   0.1738083435E+00   0.3783474855E-04  -0.2076983360E-04   0.7566949710E-04  -0.4153966721E-04   0.9149642943E-01  -0.7812879224E-02   0.0000000000E+00   0.5684844893E-02
   0.1100602360E+00   0.1745909571E+00   0.3448101195E-04  -0.2286428545E-04   0.6896202390E-04  -0.4572857090E-04   0.9295989835E-01  -0.7094268453E-02   0.0000000000E+00   0.7503595676E-02
   0.2657771621E+00   0.1442518520E+00   0.8100970243E-04  -0.3884679805E-05   0.1620194049E-03  -0.7769359609E-05   0.6968713893E-01   0.2132332377E-02   0.0000000000E+00  -0.5774864226E-02
   0.2825257220E+00   0.1345813610E+00   0.8542467897E-04  -0.2958993454E-05   0.1708493579E-03  -0.5917986907E-05   0.6655385587E-01   0.3770239170E-02   0.0000000000E+00  -0.5083672198E-02
   0.2741515723E+00   0.1394166951E+00   0.8326075302E-04  -0.3392294540E-05   0.1665215060E-03  -0.6784589080E-05   0.6810019210E-01   0.2975792350E-02   0.0000000000E+00  -0.5441106125E-02
   0.2825529766E+00   0.1438850612E+00   0.8486353676E-04  -0.3481931716E-05   0.1697270735E-03  -0.6963863433E-05   0.6893759041E-01   0.3142885758E-02   0.0000000000E+00  -0.4808929965E-02
   0.2741786178E+00   0.1487202659E+00   0.8262993663E-04  -0.3953382568E-05   0.1652598733E-03  -0.7906765136E-05   0.7053895976E-01   0.2408659065E-02   0.0000000000E+00  -0.5128405920E-02
   0.3077581916E+00   0.1582183995E+00   0.8999620194E-04  -0.3938495531E-05   0.1799924039E-03  -0.7876991062E-05   0.7196029959E-01   0.3252210049E-02   0.0000000000E+00  -0.2853064882E-02
   0.2823807306E+00   0.1155367606E+00   0.8655618881E-04  -0.2022813313E-05   0.1731123776E-03  -0.4045626626E-05   0.6155835083E-01   0.5166159343E-02   0.0000000000E+00  -0.5483731905E-02
   0.2909691620E+00   0.1107087210E+00   0.8852233272E-04  -0.1718681936E-05   0.1770446654E-03  -0.3437363872E-05   0.6024059296E-01   0.6010212001E-02   0.0000000000E+00  -0.4825941853E-02
   0.2910255952E+00   0.1202895676E+00   0.8803139593E-04  -0.2127124255E-05   0.1760627919E-03  -0.4254248510E-05   0.6271406279E-01   0.5270974177E-02   0.0000000000E+00  -0.4724994527E-02
   0.2823100063E+00   0.1058924036E+00   0.8712110107E-04  -0.1619801552E-05   0.1742422021E-03  -0.3239603103E-05   0.5904900889E-01   0.5907842412E-02   0.0000000000E+00  -0.5560458895E-02
   0.2902030553E+00   0.7218956156E-01   0.9024810326E-04  -0.5589452402E-06   0.1804962065E-03  -0.1117890480E-05   0.5105792087E-01   0.9138490004E-02   0.0000000000E+00  -0.4496261787E-02
   0.2851873020E+00   0.1830065854E+00   0.8325700988E-04  -0.6029861471E-05   0.1665140198E-03  -0.1205972294E-04   0.7856458710E-01   0.1298297670E-02   0.0000000000E+00  -0.3316033168E-02
   0.2910983048E+00   0.1298119230E+00   0.8754191785E-04  -0.2579349214E-05   0.1750838357E-03  -0.5158698428E-05   0.6514255671E-01   0.4553644946E-02   0.0000000000E+00  -0.4559118918E-02
   0.2996020394E+00   0.1345191999E+00   0.8913145451E-04  -0.2708706612E-05   0.1782629090E-03  -0.5417413224E-05   0.6615840879E-01   0.4562547417E-02   0.0000000000E+00  -0.3869989003E-02
   0.2910294545E+00   0.1392886738E+00   0.8702315450E-04  -0.3076387304E-05   0.1740463090E-03  -0.6152774608E-05   0.6759363226E-01   0.3876882228E-02   0.0000000000E+00  -0.4374297943E-02
   0.2288463464E+00   0.1908502672E+00   0.6750881042E-04  -0.9066584633E-05   0.1350176208E-03  -0.1813316927E-04   0.8333454846E-01  -0.1037991078E-02   0.0000000000E+00  -0.3559191902E-02
   0.2992996739E+00   0.1533672538E+00   0.8821030851E-04  -0.3759075679E-05   0.1764206170E-03  -0.7518151358E-05   0.7089799035E-01   0.3273937204E-02   0.0000000000E+00  -0.3509052691E-02
   0.2190444489E+00   0.1907760959E+00   0.6477095866E-04  -0.9740035884E-05   0.1295419173E-03  -0.1948007177E-04   0.8408895757E-01  -0.1504934790E-02   0.0000000000E+00  -0.3311648200E-02
   0.2242112468E+00   0.1656171999E+00   0.6882392949E-04  -0.7206355204E-05   0.1376478590E-03  -0.1441271041E-04   0.7791962369E-01  -0.1768623742E-02   0.0000000000E+00  -0.5414426326E-02
   0.2437331016E+00   0.1660056790E+00   0.7382321548E-04  -0.6196318803E-05   0.1476464310E-03  -0.1239263761E-04   0.7652711934E-01  -0.1996725065E-03   0.0000000000E+00  -0.5325704098E-02
   0.2339722241E+00   0.1658115436E+00   0.7133771348E-04  -0.6664125548E-05   0.1426754270E-03  -0.1332825110E-04   0.7715480422E-01  -0.1007909317E-02   0.0000000000E+00  -0.5396347732E-02
   0.2387648181E+00   0.1742292419E+00   0.7177235330E-04  -0.7090360366E-05   0.1435447066E-03  -0.1418072073E-04   0.7884510389E-01  -0.6155805091E-03   0.0000000000E+00  -0.4777350727E-02
   0.2290036866E+00   0.1740349196E+00   0.6920718453E-04  -0.7620813649E-05   0.1384143691E-03  -0.1524162730E-04   0.7957975611E-01  -0.1241715334E-02   0.0000000000E+00  -0.4784298975E-02
   0.9216805660E-01   0.1915524322E+00   0.2685973488E-04  -0.2830161248E-04   0.5371946975E-04  -0.5660322496E-04   0.9059201616E-01  -0.2813267646E-02   0.0000000000E+00   0.1045569738E-01
   0.1302956101E+00   0.1736196621E+00   0.4095036554E-04  -0.1892797160E-04   0.8190073108E-04  -0.3785594321E-04   0.9072260128E-01  -0.8123710381E-02   0.0000000000E+00   0.4127286995E-02
   0.1823195756E+00   0.1088748739E+00   0.6647720318E-04  -0.5016027607E-05   0.1329544064E-03  -0.1003205521E-04   0.6559710288E-01  -0.7476420136E-02   0.0000000000E+00  -0.1284853568E-01
   0.2058382778E+00   0.1120421542E+00   0.7115792360E-04  -0.3935616457E-05   0.1423158472E-03  -0.7871232915E-05   0.6396901605E-01  -0.3170896332E-02   0.0000000000E+00  -0.1121511839E-01
   0.1890233756E+00   0.1288724765E+00   0.6471087864E-04  -0.6385159786E-05   0.1294217573E-03  -0.1277031957E-04   0.7211167950E-01  -0.6639317163E-02   0.0000000000E+00  -0.9570138045E-02
   0.1940789794E+00   0.1104586662E+00   0.6883247181E-04  -0.4425282204E-05   0.1376649436E-03  -0.8850564407E-05   0.6459961006E-01  -0.5345272390E-02   0.0000000000E+00  -0.1205446739E-01
   0.1974311095E+00   0.1204576131E+00   0.6802618331E-04  -0.5060972050E-05   0.1360523666E-03  -0.1012194410E-04   0.6808295609E-01  -0.4908528151E-02   0.0000000000E+00  -0.1046116008E-01
   0.1856712734E+00   0.1188736826E+00   0.6552646877E-04  -0.5698118948E-05   0.1310529375E-03  -0.1139623790E-04   0.6892575289E-01  -0.6991286902E-02   0.0000000000E+00  -0.1112166023E-01
   0.2650100681E+00   0.1642981976E+00   0.7931702087E-04  -0.5248146686E-05   0.1586340417E-03  -0.1049629337E-04   0.7488476288E-01   0.1190298510E-02   0.0000000000E+00  -0.4881769244E-02
   0.2696262074E+00   0.1736628240E+00   0.7981314069E-04  -0.5777334917E-05   0.1596262814E-03  -0.1155466983E-04   0.7697909422E-01   0.1136839995E-02   0.0000000000E+00  -0.4271414545E-02
   0.2640778966E+00   0.1827247372E+00   0.7774252093E-04  -0.6648263355E-05   0.1554850419E-03  -0.1329652671E-04   0.7941443527E-01   0.5647278696E-03   0.0000000000E+00  -0.3973419053E-02
   0.2594617104E+00   0.1733601581E+00   0.7723081350E-04  -0.6103285688E-05   0.1544616270E-03  -0.1220657138E-04   0.7739257305E-01   0.6228716345E-03   0.0000000000E+00  -0.4544702145E-02
   0.2587378749E+00   0.1909413773E+00   0.7572195398E-04  -0.7505574930E-05   0.1514439080E-03  -0.1501114986E-04   0.8164607790E-01   0.3013629351E-03   0.0000000000E+00  -0.3659867380E-02
   0.2897570549E+00   0.1761151115E+00   0.8479163566E-04  -0.5423817704E-05   0.1695832713E-03  -0.1084763541E-04   0.7679279182E-01   0.1764399881E-02   0.0000000000E+00  -0.3377554761E-02
   0.2788126037E+00   0.1761359926E+00   0.8200155292E-04  -0.5690458442E-05   0.1640031058E-03  -0.1138091688E-04   0.7718317281E-01   0.1385543474E-02   0.0000000000E+00  -0.3808754195E-02
   0.8868539837E-01   0.1845252741E+00   0.2655555722E-04  -0.2829464830E-04   0.5311111444E-04  -0.5658929660E-04   0.9234762547E-01  -0.2901139605E-02   0.0000000000E+00   0.1095779243E-01
   0.8416617089E-01   0.1922922936E+00   0.2434906428E-04  -0.2997411712E-04   0.4869812856E-04  -0.5994823424E-04   0.9047623011E-01  -0.1824493103E-02   0.0000000000E+00   0.1116126494E-01
   0.8790351243E-01   0.1609655767E+00   0.2917330978E-04  -0.2589809094E-04   0.5834661956E-04  -0.5179618189E-04   0.9751035755E-01  -0.5283373814E-02   0.0000000000E+00   0.9008365268E-02
   0.8071253161E-01   0.1544623863E+00   0.2769780257E-04  -0.2673624591E-04   0.5539560513E-04  -0.5347249183E-04   0.1005263651E+00  -0.4105148141E-02   0.0000000000E+00   0.8988698831E-02
   0.1938766235E+00   0.9046920744E-01   0.7202715366E-04  -0.2926887444E-05   0.1440543073E-03  -0.5853774889E-05   0.5607193642E-01  -0.3686758623E-02   0.0000000000E+00  -0.1397085294E-01
   0.2044187254E+00   0.9005036560E-01   0.7407579373E-04  -0.2499734224E-05   0.1481515875E-03  -0.4999468449E-05   0.5532897439E-01  -0.1778427344E-02   0.0000000000E+00  -0.1292022536E-01
   0.1990435937E+00   0.8101864523E-01   0.7444356096E-04  -0.2144555839E-05   0.1488871219E-03  -0.4289111679E-05   0.5181243587E-01  -0.1603609816E-02   0.0000000000E+00  -0.1354066687E-01
   0.2095851716E+00   0.8059949746E-01   0.7631753414E-04  -0.1819378708E-05   0.1526350683E-03  -0.3638757416E-05   0.5119002273E-01   0.3478819769E-03   0.0000000000E+00  -0.1242199344E-01
   0.2239947012E+00   0.1823786388E+00   0.6700540838E-04  -0.8651414198E-05   0.1340108168E-03  -0.1730282840E-04   0.8180888030E-01  -0.1536244643E-02   0.0000000000E+00  -0.4025205703E-02
   0.1405772112E+00   0.1735360846E+00   0.4412206523E-04  -0.1715881167E-04   0.8824413046E-04  -0.3431762335E-04   0.8898593157E-01  -0.8014815724E-02   0.0000000000E+00   0.2407049121E-02
   0.1350964426E+00   0.1648603673E+00   0.4371885487E-04  -0.1704723103E-04   0.8743770973E-04  -0.3409446206E-04   0.8959314845E-01  -0.9431858246E-02   0.0000000000E+00   0.2198798186E-02
   0.1351418067E+00   0.1461346626E+00   0.4682488949E-04  -0.1469145219E-04   0.9364977898E-04  -0.2938290439E-04   0.8813045247E-01  -0.1255404369E-01   0.0000000000E+00  -0.1750540362E-02
   0.1402596971E+00   0.1554555528E+00   0.4678436863E-04  -0.1504239193E-04   0.9356873725E-04  -0.3008478385E-04   0.8822901199E-01  -0.1073478093E-01   0.0000000000E+00  -0.5055300494E-03
   0.1299780840E+00   0.1555392456E+00   0.4360866063E-04  -0.1677347394E-04   0.8721732126E-04  -0.3354694788E-04   0.8991395227E-01  -0.1108679664E-01   0.0000000000E+00   0.1012550438E-02
   0.5890038336E-01   0.1807119873E+00   0.1769422085E-04  -0.3378991141E-04   0.3538844169E-04  -0.6757982281E-04   0.9362431349E-01   0.2984159062E-02   0.0000000000E+00   0.1160738130E-01
   0.1851802925E+00   0.1648165097E+00   0.5840784983E-04  -0.1027311210E-04   0.1168156997E-03  -0.2054622420E-04   0.8197329331E-01  -0.5698896656E-02   0.0000000000E+00  -0.3936895404E-02
   0.1801457081E+00   0.1734896586E+00   0.5581904572E-04  -0.1169279462E-04   0.1116380914E-03  -0.2338558924E-04   0.8405035534E-01  -0.5442809877E-02   0.0000000000E+00  -0.2474283943E-02
   0.1702669408E+00   0.1734098250E+00   0.5298325910E-04  -0.1285300454E-04   0.1059665182E-03  -0.2570600908E-04   0.8550356668E-01  -0.6224707403E-02   0.0000000000E+00  -0.1497882473E-02
   0.1753017278E+00   0.1647369661E+00   0.5563991894E-04  -0.1133164327E-04   0.1112798379E-03  -0.2266328655E-04   0.8322418673E-01  -0.6761654930E-02   0.0000000000E+00  -0.3080148359E-02
   0.1960320398E+00   0.1477856498E+00   0.6368493804E-04  -0.7619081423E-05   0.1273698761E-03  -0.1523816285E-04   0.7658324911E-01  -0.5248032706E-02   0.0000000000E+00  -0.6836506084E-02
   0.1763217654E+00   0.1463100034E+00   0.5866278887E-04  -0.9267876650E-05   0.1173255777E-03  -0.1853575330E-04   0.7930876698E-01  -0.8078136784E-02   0.0000000000E+00  -0.6180234197E-02
   0.1906062192E+00   0.1563012122E+00   0.6106408229E-04  -0.8901944251E-05   0.1221281646E-03  -0.1780388850E-04   0.7935069196E-01  -0.5560763171E-02   0.0000000000E+00  -0.5414789207E-02
   0.1807508732E+00   0.1555632176E+00   0.5848107909E-04  -0.9781120616E-05   0.1169621582E-03  -0.1956224123E-04   0.8076453342E-01  -0.6739792252E-02   0.0000000000E+00  -0.4971308961E-02
   0.1861769709E+00   0.1470479804E+00   0.6119930555E-04  -0.8389856730E-05   0.1223986111E-03  -0.1677971346E-04   0.7772147991E-01  -0.6741328759E-02   0.0000000000E+00  -0.6554054699E-02
   0.7354816857E-01   0.1459318939E+00   0.2656402448E-04  -0.2740003896E-04   0.5312804896E-04  -0.5480007792E-04   0.1037606283E+00  -0.2337094998E-02   0.0000000000E+00   0.7636203213E-02
   0.9348713567E-01   0.1193813660E+00   0.3938858904E-04  -0.1923798688E-04   0.7877717807E-04  -0.3847597376E-04   0.9734684442E-01  -0.1315487576E-01   0.0000000000E+00  -0.4451200210E-02
   0.8413062962E-01   0.1149823582E+00   0.3750614109E-04  -0.2095893054E-04   0.7501228218E-04  -0.4191786108E-04   0.1003500316E+00  -0.9412537043E-02   0.0000000000E+00  -0.6770759110E-02
   0.9426269157E-01   0.1078175618E+00   0.4316442450E-04  -0.1745373448E-04   0.8632884900E-04  -0.3490746896E-04   0.9024489553E-01  -0.1358194727E-01   0.0000000000E+00  -0.9949935600E-02
   0.2465866454E+00   0.5430921785E-01   0.8462681442E-04  -0.4362838819E-06   0.1692536288E-03  -0.8725677639E-06   0.4474956126E-01   0.7802272780E-02   0.0000000000E+00  -0.7223130562E-02
   0.2686160361E+00   0.5506896482E-01   0.8774302547E-04  -0.3418944718E-06   0.1754860509E-03  -0.6837889436E-06   0.4657594039E-01   0.9366791937E-02   0.0000000000E+00  -0.5411926977E-02
   0.1778014728E+00   0.6219222524E-01   0.7410259494E-04  -0.1783986428E-05   0.1482051899E-03  -0.3567972857E-05   0.4129154388E-01  -0.3750853655E-02   0.0000000000E+00  -0.1583321692E-01
   0.2303849428E+00   0.6299988957E-01   0.8159759655E-04  -0.7722781315E-06   0.1631951931E-03  -0.1544556263E-05   0.4594916066E-01   0.5265139188E-02   0.0000000000E+00  -0.9373542515E-02
   0.2047309150E+00   0.1652090060E+00   0.6370800254E-04  -0.8539651060E-05   0.1274160051E-03  -0.1707930212E-04   0.7971561507E-01  -0.3632131432E-02   0.0000000000E+00  -0.4990080685E-02
   0.1996886021E+00   0.1736999892E+00   0.6128970122E-04  -0.9755603297E-05   0.1225794024E-03  -0.1951120659E-04   0.8198834031E-01  -0.3693518068E-02   0.0000000000E+00  -0.3853890172E-02
   0.1899131377E+00   0.1735036370E+00   0.5858590688E-04  -0.1065932763E-04   0.1171718138E-03  -0.2131865527E-04   0.8317254296E-01  -0.4515167051E-02   0.0000000000E+00  -0.3270844452E-02
   0.1949556634E+00   0.1650129122E+00   0.6108046976E-04  -0.9352587764E-05   0.1221609395E-03  -0.1870517553E-04   0.8071468768E-01  -0.4704552865E-02   0.0000000000E+00  -0.4507881680E-02
   0.2414822665E+00   0.6423235247E-01   0.8314150811E-04  -0.6943768980E-06   0.1662830162E-03  -0.1388753796E-05   0.4679365053E-01   0.6343352832E-02   0.0000000000E+00  -0.8355334343E-02
   0.2521436110E+00   0.6427426781E-01   0.8474434887E-04  -0.6079973141E-06   0.1694886977E-03  -0.1215994628E-05   0.4768890364E-01   0.7343067983E-02   0.0000000000E+00  -0.7318245637E-02
   0.2736056785E+00   0.9135421579E-01   0.8641816025E-04  -0.1183937695E-05   0.1728363205E-03  -0.2367875391E-05   0.5529925333E-01   0.6624010022E-02   0.0000000000E+00  -0.6263482025E-02
   0.2735323728E+00   0.1011002489E+00   0.8576527702E-04  -0.1535692850E-05   0.1715305540E-03  -0.3071385701E-05   0.5782985590E-01   0.5731327052E-02   0.0000000000E+00  -0.6308221294E-02
   0.5952795938E-01   0.1710667154E+00   0.1871949478E-04  -0.3285720618E-04   0.3743898955E-04  -0.6571441236E-04   0.9710607616E-01   0.3408090767E-02   0.0000000000E+00   0.1147128780E-01
   0.2737953189E+00   0.1587435257E+00   0.8186097636E-04  -0.4611106848E-05   0.1637219527E-03  -0.9222213697E-05   0.7310886766E-01   0.1917057577E-02   0.0000000000E+00  -0.4718991819E-02
   0.2653935880E+00   0.1542750891E+00   0.8015932226E-04  -0.4544972810E-05   0.1603186445E-03  -0.9089945620E-05   0.7228188722E-01   0.1592825107E-02   0.0000000000E+00  -0.5331249720E-02
   0.2910569630E+00   0.1485923559E+00   0.8653667179E-04  -0.3605029739E-05   0.1730733436E-03  -0.7210059478E-05   0.6995020598E-01   0.3286331629E-02   0.0000000000E+00  -0.4124148592E-02
   0.2734287023E+00   0.8173241960E-01   0.8699108584E-04  -0.8899328692E-06   0.1739821717E-03  -0.1779865738E-05   0.5279875411E-01   0.7386947011E-02   0.0000000000E+00  -0.6141052139E-02
   0.2736028443E+00   0.1107446225E+00   0.8512576773E-04  -0.1933158839E-05   0.1702515355E-03  -0.3866317679E-05   0.6045560921E-01   0.4980444530E-02   0.0000000000E+00  -0.6221694451E-02
   0.2650491897E+00   0.1254118781E+00   0.8230422679E-04  -0.2802978875E-05   0.1646084536E-03  -0.5605957751E-05   0.6461095660E-01   0.3228007012E-02   0.0000000000E+00  -0.6550183179E-02
   0.2737151039E+00   0.1204744077E+00   0.8447797674E-04  -0.2383444488E-05   0.1689559535E-03  -0.4766888975E-05   0.6304888700E-01   0.4218112961E-02   0.0000000000E+00  -0.6026596397E-02
   0.2824532448E+00   0.1250591299E+00   0.8599159557E-04  -0.2468038269E-05   0.1719831911E-03  -0.4936076538E-05   0.6403876876E-01   0.4415018403E-02   0.0000000000E+00  -0.5299539480E-02
   0.2737873451E+00   0.1299966545E+00   0.8383236447E-04  -0.2871836066E-05   0.1676647289E-03  -0.5743672133E-05   0.6562930103E-01   0.3542461040E-02   0.0000000000E+00  -0.5790962810E-02
   0.2468330209E+00   0.1161045599E+00   0.7930231070E-04  -0.2726350365E-05   0.1586046214E-03  -0.5452700731E-05   0.6261158750E-01   0.2215481084E-02   0.0000000000E+00  -0.8172751292E-02
   0.2265021929E+00   0.1285731388E+00   0.7357629226E-04  -0.4195748414E-05   0.1471525845E-03  -0.8391496828E-05   0.6764256001E-01  -0.9321431673E-03   0.0000000000E+00  -0.8651034615E-02
   0.2475514926E+00   0.1260406174E+00   0.7850152895E-04  -0.3279859685E-05   0.1570030579E-03  -0.6559719370E-05   0.6542690943E-01   0.1616661559E-02   0.0000000000E+00  -0.7653122999E-02
   0.2373860394E+00   0.1322749045E+00   0.7562545487E-04  -0.4015495876E-05   0.1512509097E-03  -0.8030991751E-05   0.6796761875E-01   0.1533454670E-03   0.0000000000E+00  -0.7856845261E-02
   0.2366678582E+00   0.1223390501E+00   0.7652308308E-04  -0.3393959596E-05   0.1530461662E-03  -0.6787919191E-05   0.6503962197E-01   0.6596460929E-03   0.0000000000E+00  -0.8457169714E-02
   0.2741962255E+00   0.1667714014E+00   0.8142582453E-04  -0.5149211728E-05   0.1628516491E-03  -0.1029842346E-04   0.7509292888E-01   0.1525111112E-02   0.0000000000E+00  -0.4395504165E-02
   0.1004340824E+00   0.1751471145E+00   0.3135781002E-04  -0.2487549873E-04   0.6271562005E-04  -0.4975099746E-04   0.9345344651E-01  -0.5789342719E-02   0.0000000000E+00   0.8943897908E-02
   0.1260861774E+00   0.1248909188E+00   0.4837980922E-04  -0.1335307624E-04   0.9675961843E-04  -0.2670615249E-04   0.8626564273E-01  -0.1605239709E-01   0.0000000000E+00  -0.6711820040E-02
   0.1077556968E+00   0.1274075756E+00   0.4204328197E-04  -0.1719278586E-04   0.8408656395E-04  -0.3438557173E-04   0.9328064874E-01  -0.1482355609E-01   0.0000000000E+00  -0.3150211954E-02
   0.1190925785E+00   0.1352060861E+00   0.4394916901E-04  -0.1604429681E-04   0.8789833802E-04  -0.3208859362E-04   0.9058547549E-01  -0.1426905459E-01   0.0000000000E+00  -0.2483627086E-02
   0.1099272222E+00   0.1364642499E+00   0.4074241113E-04  -0.1801668400E-04   0.8148482226E-04  -0.3603336800E-04   0.9399077539E-01  -0.1335640737E-01   0.0000000000E+00  -0.4170632177E-03
   0.1169210931E+00   0.1261495063E+00   0.4526336594E-04  -0.1518890173E-04   0.9052673188E-04  -0.3037780346E-04   0.8936599674E-01  -0.1566689569E-01   0.0000000000E+00  -0.4945006313E-02
   0.2488229917E+00   0.1742138189E+00   0.7440790556E-04  -0.6603698480E-05   0.1488158111E-03  -0.1320739696E-04   0.7824913537E-01   0.5233833007E-04   0.0000000000E+00  -0.4736538820E-02
   0.2192021507E+00   0.1739608932E+00   0.6658988608E-04  -0.8245599768E-05   0.1331797722E-03  -0.1649119954E-04   0.8025710782E-01  -0.2038529185E-02   0.0000000000E+00  -0.4589948559E-02
   0.1537477046E+00   0.3409047711E-01   0.7616885203E-04  -0.1230863454E-05   0.1523377041E-03  -0.2461726908E-05   0.2079543525E-01  -0.7518332764E-02   0.0000000000E+00  -0.1373928998E-01
   0.2543716431E+00   0.1651520531E+00   0.7659203116E-04  -0.5683981931E-05   0.1531840623E-03  -0.1136796386E-04   0.7564509547E-01   0.4923436716E-03   0.0000000000E+00  -0.5130434469E-02
   0.1109832168E+00   0.1108287261E+00   0.4742093984E-04  -0.1416395509E-04   0.9484187968E-04  -0.2832791018E-04   0.8607465971E-01  -0.1753949055E-01   0.0000000000E+00  -0.1014650332E-01
   0.1197389307E+00   0.1069644486E+00   0.5110424002E-04  -0.1195745399E-04   0.1022084800E-03  -0.2391490797E-04   0.8019228915E-01  -0.1782688682E-01   0.0000000000E+00  -0.1218440935E-01
   0.1127448971E+00   0.1023414213E+00   0.5049504982E-04  -0.1261355658E-04   0.1009900996E-03  -0.2522711317E-04   0.7963759164E-01  -0.1797026344E-01   0.0000000000E+00  -0.1365579997E-01
   0.9462127185E-01   0.1683430005E+00   0.3037385093E-04  -0.2530949536E-04   0.6074770187E-04  -0.5061899072E-04   0.9544157646E-01  -0.5727604535E-02   0.0000000000E+00   0.9272152185E-02
   0.9087453656E-01   0.1769813218E+00   0.2809818732E-04  -0.2705338421E-04   0.5619637464E-04  -0.5410676842E-04   0.9401290210E-01  -0.4225088833E-02   0.0000000000E+00   0.1028968507E-01
   0.9609188528E-01   0.1358265509E+00   0.3627569185E-04  -0.2090871286E-04   0.7255138370E-04  -0.4181742573E-04   0.9855432576E-01  -0.1123338834E-01   0.0000000000E+00   0.1854409687E-02
   0.8625543355E-01   0.1352602493E+00   0.3302174978E-04  -0.2310824580E-04   0.6604349955E-04  -0.4621649159E-04   0.1015618362E+00  -0.8348564832E-02   0.0000000000E+00   0.2962895459E-02
   0.8495265987E-01   0.1270374208E+00   0.3444402172E-04  -0.2234674782E-04   0.6888804345E-04  -0.4469349564E-04   0.1026199296E+00  -0.8888267005E-02   0.0000000000E+00  -0.2135804826E-03
   0.9478909135E-01   0.1276039424E+00   0.3769118451E-04  -0.2007887153E-04   0.7538236903E-04  -0.4015774306E-04   0.9811405882E-01  -0.1209979002E-01   0.0000000000E+00  -0.1116968026E-02
   0.2094617929E+00   0.1737567087E+00   0.6397061790E-04  -0.8944087283E-05   0.1279412358E-03  -0.1788817457E-04   0.8120132035E-01  -0.2789277607E-02   0.0000000000E+00  -0.4331776589E-02
   0.2290498968E+00   0.1049047273E+00   0.7688691731E-04  -0.2589902766E-05   0.1537738346E-03  -0.5179805532E-05   0.5983044336E-01   0.9381359379E-03   0.0000000000E+00  -0.1001226288E-01
   0.2379413176E+00   0.1105046579E+00   0.7804985599E-04  -0.2652027832E-05   0.1560997120E-03  -0.5304055665E-05   0.6133426708E-01   0.1665520796E-02   0.0000000000E+00  -0.9041186314E-02
   0.2277760932E+00   0.1167390676E+00   0.7524508226E-04  -0.3346789389E-05   0.1504901645E-03  -0.6693578779E-05   0.6373409366E-01  -0.1185809555E-03   0.0000000000E+00  -0.9405016290E-02
   0.8358222092E-01   0.1432241253E+00   0.3052700538E-04  -0.2474422202E-04   0.6105401076E-04  -0.4948844404E-04   0.1021301918E+00  -0.6694039628E-02   0.0000000000E+00   0.5647654651E-02
   0.1559471357E+00   0.1460678641E+00   0.5300389490E-04  -0.1161596532E-04   0.1060077898E-03  -0.2323193063E-04   0.8327401015E-01  -0.1076972532E-01   0.0000000000E+00  -0.4501461605E-02
   0.1506624871E+00   0.1554222762E+00   0.4991069229E-04  -0.1345859177E-04   0.9982138458E-04  -0.2691718355E-04   0.8574860518E-01  -0.1008718911E-01   0.0000000000E+00  -0.2016132725E-02
   0.1455446103E+00   0.1461015226E+00   0.4996077653E-04  -0.1306714825E-04   0.9992155307E-04  -0.2613429649E-04   0.8533375589E-01  -0.1177159461E-01   0.0000000000E+00  -0.3199647991E-02
   0.1708723907E+00   0.1554836614E+00   0.5574056910E-04  -0.1084853795E-04   0.1114811382E-03  -0.2169707590E-04   0.8213245809E-01  -0.7992680433E-02   0.0000000000E+00  -0.4189472710E-02
   0.1606848904E+00   0.1553624222E+00   0.5285179807E-04  -0.1208158677E-04   0.1057035961E-03  -0.2416317353E-04   0.8417741081E-01  -0.9068639711E-02   0.0000000000E+00  -0.3193367272E-02
   0.1661345771E+00   0.1461891605E+00   0.5587302630E-04  -0.1036882843E-04   0.1117460526E-03  -0.2073765685E-04   0.8101782516E-01  -0.9537604194E-02   0.0000000000E+00  -0.5412544255E-02
   0.2064673522E+00   0.1331215426E+00   0.6832906689E-04  -0.5575457928E-05   0.1366581338E-03  -0.1115091586E-04   0.7102703676E-01  -0.3839521220E-02   0.0000000000E+00  -0.8819164271E-02
   0.2061527493E+00   0.1225819156E+00   0.6972175801E-04  -0.4733126446E-05   0.1394435160E-03  -0.9466252892E-05   0.6755271933E-01  -0.3588624321E-02   0.0000000000E+00  -0.1003233881E-01
   0.2161699976E+00   0.1203076616E+00   0.7228554202E-04  -0.4060457173E-05   0.1445710840E-03  -0.8120914346E-05   0.6597135793E-01  -0.1923474035E-02   0.0000000000E+00  -0.9797428754E-02
   0.2164849051E+00   0.1308474970E+00   0.7099935842E-04  -0.4833651065E-05   0.1419987168E-03  -0.9667302130E-05   0.6919406451E-01  -0.2376520948E-02   0.0000000000E+00  -0.8757223126E-02
   0.2144711422E+00   0.1654132311E+00   0.6628408152E-04  -0.7827979348E-05   0.1325681630E-03  -0.1565595870E-04   0.7872001231E-01  -0.2731995330E-02   0.0000000000E+00  -0.5241159220E-02
   0.2359413409E+00   0.7296473285E-01   0.8151597368E-04  -0.1011616264E-05   0.1630319474E-03  -0.2023232528E-05   0.4929557611E-01   0.4851615190E-02   0.0000000000E+00  -0.9463000336E-02
   0.2617367377E+00   0.6195561966E-01   0.8634289094E-04  -0.4954451599E-06   0.1726857819E-03  -0.9908903198E-06   0.4751160207E-01   0.8315623798E-02   0.0000000000E+00  -0.6354427108E-02
   0.1885705258E+00   0.8095621547E-01   0.7262226123E-04  -0.2510077941E-05   0.1452445225E-03  -0.5020155881E-05   0.5155628412E-01  -0.3685326329E-02   0.0000000000E+00  -0.1483477773E-01
   0.2398392230E+00   0.8072606756E-01   0.8141898411E-04  -0.1228414064E-05   0.1628379682E-03  -0.2456828129E-05   0.5180779782E-01   0.4511962476E-02   0.0000000000E+00  -0.9194807447E-02
   0.2151945710E+00   0.1483409032E+00   0.6850168241E-04  -0.6315612737E-05   0.1370033648E-03  -0.1263122547E-04   0.7441147580E-01  -0.2794839266E-02   0.0000000000E+00  -0.7025994422E-02
   0.2249371120E+00   0.1488846925E+00   0.7086032981E-04  -0.5798492297E-05   0.1417206596E-03  -0.1159698459E-04   0.7357757668E-01  -0.1777309524E-02   0.0000000000E+00  -0.6885316815E-02
   0.2294454834E+00   0.1575228441E+00   0.7103745473E-04  -0.6242953237E-05   0.1420749095E-03  -0.1248590647E-04   0.7544852612E-01  -0.1275970537E-02   0.0000000000E+00  -0.6067996634E-02
   0.2197027808E+00   0.1569790544E+00   0.6861992812E-04  -0.6760202168E-05   0.1372398562E-03  -0.1352040434E-04   0.7623079027E-01  -0.2193608428E-02   0.0000000000E+00  -0.6165860245E-02
   0.1022353628E+00   0.1151052745E+00   0.4346694194E-04  -0.1662381805E-04   0.8693388389E-04  -0.3324763611E-04   0.9166112402E-01  -0.1555955901E-01   0.0000000000E+00  -0.7306300404E-02
   0.1030110345E+00   0.1035415475E+00   0.4727884721E-04  -0.1481615980E-04   0.9455769441E-04  -0.2963231961E-04   0.8485429045E-01  -0.1651519717E-01   0.0000000000E+00  -0.1269633527E-01
   0.1040956463E+00   0.1406739213E+00   0.3796843167E-04  -0.1981324224E-04   0.7593686333E-04  -0.3962648448E-04   0.9591499130E-01  -0.1208397640E-01   0.0000000000E+00   0.1686654085E-02
   0.9341870053E-01   0.1437903803E+00   0.3379021006E-04  -0.2256490835E-04   0.6758042011E-04  -0.4512981670E-04   0.9886857392E-01  -0.9147189472E-02   0.0000000000E+00   0.4472093700E-02
   0.2582519282E+00   0.1581452766E+00   0.7812940029E-04  -0.5037137400E-05   0.1562588006E-03  -0.1007427480E-04   0.7370153489E-01   0.1012197641E-02   0.0000000000E+00  -0.5420733799E-02
   0.2476136022E+00   0.1589990548E+00   0.7543740917E-04  -0.5498727703E-05   0.1508748183E-03  -0.1099745541E-04   0.7450060414E-01   0.2197876415E-03   0.0000000000E+00  -0.5675716512E-02
   0.2570235266E+00   0.1401142330E+00   0.7933818825E-04  -0.3869349884E-05   0.1586763765E-03  -0.7738699768E-05   0.6901760486E-01   0.1668798193E-02   0.0000000000E+00  -0.6415386669E-02
   0.2586356567E+00   0.1481221511E+00   0.7904123877E-04  -0.4339639506E-05   0.1580824775E-03  -0.8679279012E-05   0.7105509376E-01   0.1453523534E-02   0.0000000000E+00  -0.5895928755E-02
   0.1236207901E+00   0.1458281673E+00   0.4330437781E-04  -0.1664623604E-04   0.8660875563E-04  -0.3329247207E-04   0.9076152529E-01  -0.1263708949E-01   0.0000000000E+00   0.4061061378E-04
   0.1184568931E+00   0.1552323960E+00   0.4002703889E-04  -0.1884634136E-04   0.8005407778E-04  -0.3769268272E-04   0.9285691527E-01  -0.1094647561E-01   0.0000000000E+00   0.3045404611E-02
   0.1466131519E+00   0.1281145662E+00   0.5367928674E-04  -0.1065425462E-04   0.1073585735E-03  -0.2130850924E-04   0.8090401679E-01  -0.1370294940E-01   0.0000000000E+00  -0.7994337528E-02
   0.1512799097E+00   0.1370911841E+00   0.5326123042E-04  -0.1114796064E-04   0.1065224608E-03  -0.2229592129E-04   0.8234831732E-01  -0.1208217568E-01   0.0000000000E+00  -0.6140521924E-02
   0.1408774038E+00   0.1371247564E+00   0.5022959953E-04  -0.1262319841E-04   0.1004591991E-03  -0.2524639682E-04   0.8478317876E-01  -0.1326057545E-01   0.0000000000E+00  -0.4942140181E-02
   0.1093691561E+00   0.1191181461E+00   0.4463304802E-04  -0.1567864019E-04   0.8926609604E-04  -0.3135728038E-04   0.8965892594E-01  -0.1588340244E-01   0.0000000000E+00  -0.6747042478E-02
   0.1185343831E+00   0.1178599692E+00   0.4779704565E-04  -0.1371092083E-04   0.9559409130E-04  -0.2742184166E-04   0.8637064686E-01  -0.1678542651E-01   0.0000000000E+00  -0.8361411572E-02
   0.2392062093E+00   0.1577169956E+00   0.7346743315E-04  -0.5769791387E-05   0.1469348663E-03  -0.1153958277E-04   0.7476937399E-01  -0.3749076867E-03   0.0000000000E+00  -0.5972147601E-02
   0.2099628126E+00   0.1567750702E+00   0.6613054089E-04  -0.7386585450E-05   0.1322610818E-03  -0.1477317090E-04   0.7710430528E-01  -0.3284419556E-02   0.0000000000E+00  -0.6021826910E-02
   0.1670923487E+00   0.1253520352E+00   0.5976723618E-04  -0.7938930016E-05   0.1195344724E-03  -0.1587786003E-04   0.7498370729E-01  -0.1060061384E-01   0.0000000000E+00  -0.9903575124E-02
   0.1615197348E+00   0.1357101498E+00   0.5638559700E-04  -0.9710747948E-05   0.1127711940E-03  -0.1942149590E-04   0.7932270503E-01  -0.1081293437E-01   0.0000000000E+00  -0.7267400756E-02
   0.1568529409E+00   0.1267335855E+00   0.5678663845E-04  -0.9204159736E-05   0.1135732769E-03  -0.1840831947E-04   0.7756147786E-01  -0.1223365320E-01   0.0000000000E+00  -0.9006366527E-02
   0.2003813483E+00   0.1564973078E+00   0.6365110584E-04  -0.8083733767E-05   0.1273022117E-03  -0.1616746753E-04   0.7824023162E-01  -0.4345011282E-02   0.0000000000E+00  -0.5855312473E-02
   0.2208485237E+00   0.1384572052E+00   0.7108622036E-04  -0.5196590235E-05   0.1421724407E-03  -0.1039318047E-04   0.7105660403E-01  -0.1932731661E-02   0.0000000000E+00  -0.7876015699E-02
   0.2108308378E+00   0.1407312265E+00   0.6837660572E-04  -0.5946824724E-05   0.1367532114E-03  -0.1189364945E-04   0.7280965405E-01  -0.3265335202E-02   0.0000000000E+00  -0.7890252007E-02
   0.1977453631E+00   0.1309970777E+00   0.6652204061E-04  -0.5955091978E-05   0.1330440812E-03  -0.1191018396E-04   0.7143779941E-01  -0.5263779366E-02   0.0000000000E+00  -0.9197503578E-02
   0.2012497907E+00   0.1404537334E+00   0.6603623694E-04  -0.6554213640E-05   0.1320724739E-03  -0.1310842728E-04   0.7388187336E-01  -0.4597099953E-02   0.0000000000E+00  -0.7820157382E-02
   0.1925275368E+00   0.1383290504E+00   0.6414093050E-04  -0.7006529756E-05   0.1282818610E-03  -0.1401305951E-04   0.7444391321E-01  -0.5858766167E-02   0.0000000000E+00  -0.8126595438E-02
   0.1826726859E+00   0.1375914565E+00   0.6172263435E-04  -0.7756839308E-05   0.1234452687E-03  -0.1551367862E-04   0.7583826249E-01  -0.7415420941E-02   0.0000000000E+00  -0.7918782776E-02
   0.1717067841E+00   0.1358309878E+00   0.5912401719E-04  -0.8616399969E-05   0.1182480344E-03  -0.1723279994E-04   0.7734231957E-01  -0.9179731088E-02   0.0000000000E+00  -0.7892711000E-02
   0.1780579271E+00   0.1271124361E+00   0.6226303757E-04  -0.7101967582E-05   0.1245260751E-03  -0.1420393516E-04   0.7325924877E-01  -0.8675032862E-02   0.0000000000E+00  -0.9785069068E-02
   0.2056133699E+00   0.1480634081E+00   0.6611497983E-04  -0.6923617438E-05   0.1322299597E-03  -0.1384723488E-04   0.7532407097E-01  -0.4062082423E-02   0.0000000000E+00  -0.6967252317E-02
   0.2649371892E+00   0.1156822428E+00   0.8303807314E-04  -0.2305054356E-05   0.1660761463E-03  -0.4610108712E-05   0.6188634496E-01   0.3898221182E-02   0.0000000000E+00  -0.6815344304E-02
   0.2654131445E+00   0.1348319175E+00   0.8165151503E-04  -0.3323819234E-05   0.1633030301E-03  -0.6647638468E-05   0.6712992969E-01   0.2620283612E-02   0.0000000000E+00  -0.6171445325E-02
   0.2472995325E+00   0.8500505591E-01   0.8229750076E-04  -0.1277830931E-05   0.1645950015E-03  -0.2555661862E-05   0.5321199775E-01   0.4880464556E-02   0.0000000000E+00  -0.8565178357E-02
   0.2559409887E+00   0.1207582443E+00   0.8076924508E-04  -0.2756236010E-05   0.1615384902E-03  -0.5512472020E-05   0.6368746184E-01   0.2775983624E-02   0.0000000000E+00  -0.7318895852E-02
   0.2566597580E+00   0.1306943170E+00   0.8006301203E-04  -0.3302317892E-05   0.1601260241E-03  -0.6604635784E-05   0.6643094495E-01   0.2213068049E-02   0.0000000000E+00  -0.6840467359E-02
   0.1355082234E+00   0.7772464349E-01   0.6356314881E-04  -0.5930504244E-05   0.1271262976E-03  -0.1186100849E-04   0.5348024662E-01  -0.1650873486E-01   0.0000000000E+00  -0.1995968535E-01
   0.1268059590E+00   0.7153572668E-01   0.6381600168E-04  -0.6366007306E-05   0.1276320034E-03  -0.1273201461E-04   0.4781307644E-01  -0.1784491054E-01   0.0000000000E+00  -0.2058848151E-01
   0.1833161647E+00   0.9040025388E-01   0.7000355198E-04  -0.3410673315E-05   0.1400071040E-03  -0.6821346630E-05   0.5672685788E-01  -0.6064951460E-02   0.0000000000E+00  -0.1498962839E-01
   0.1019237727E+00   0.1316171164E+00   0.3915322373E-04  -0.1903286396E-04   0.7830644745E-04  -0.3806572791E-04   0.9611419907E-01  -0.1314134692E-01   0.0000000000E+00  -0.6446228065E-03
   0.1006213564E+00   0.1233946313E+00   0.4069479698E-04  -0.1816190129E-04   0.8138959396E-04  -0.3632380258E-04   0.9498271177E-01  -0.1411145817E-01   0.0000000000E+00  -0.4006868354E-02
   0.1998571931E+00   0.1012557019E+00   0.7150668926E-04  -0.3424018915E-05   0.1430133785E-03  -0.6848037831E-05   0.6016646445E-01  -0.3364627195E-02   0.0000000000E+00  -0.1252683143E-01
   0.2103997120E+00   0.1008369718E+00   0.7369434610E-04  -0.2962081718E-05   0.1473886922E-03  -0.5924163436E-05   0.5944773093E-01  -0.1542643505E-02   0.0000000000E+00  -0.1162752388E-01
   0.2174443181E+00   0.1084736482E+00   0.7409936822E-04  -0.3192257664E-05   0.1481987364E-03  -0.6384515327E-05   0.6168262787E-01  -0.1103793555E-02   0.0000000000E+00  -0.1065040839E-01
   0.1047738026E+00   0.9505423815E-01   0.5071553330E-04  -0.1326728497E-04   0.1014310666E-03  -0.2653456994E-04   0.7650925362E-01  -0.1683627892E-01   0.0000000000E+00  -0.1612414528E-01
   0.1117899395E+00   0.8534415399E-01   0.5599782537E-04  -0.1053400188E-04   0.1119956507E-03  -0.2106800375E-04   0.6436838454E-01  -0.1849909521E-01   0.0000000000E+00  -0.1838554680E-01
   0.1493161912E+00   0.9407052292E-01   0.6210774859E-04  -0.6238959913E-05   0.1242154972E-03  -0.1247791983E-04   0.6378422573E-01  -0.1424608735E-01   0.0000000000E+00  -0.1701798667E-01
   0.1389055833E+00   0.9858549908E-01   0.5850144369E-04  -0.7943073774E-05   0.1170028874E-03  -0.1588614755E-04   0.6893785847E-01  -0.1620521369E-01   0.0000000000E+00  -0.1565464139E-01
   0.1388194635E+00   0.8862607443E-01   0.6116683750E-04  -0.6764255387E-05   0.1223336750E-03  -0.1352851077E-04   0.6229382709E-01  -0.1618835414E-01   0.0000000000E+00  -0.1830248787E-01
   0.2305907230E+00   0.1390007186E+00   0.7333099413E-04  -0.4766815599E-05   0.1466619883E-03  -0.9533631198E-05   0.7033040877E-01  -0.7796221506E-03   0.0000000000E+00  -0.7630892431E-02
   0.1272897845E+00   0.1139952603E+00   0.5137350147E-04  -0.1164555576E-04   0.1027470029E-03  -0.2329111153E-04   0.8092261309E-01  -0.1681053866E-01   0.0000000000E+00  -0.1062783374E-01
   0.1306135818E+00   0.1355127343E+00   0.4746559726E-04  -0.1403857120E-04   0.9493119451E-04  -0.2807714240E-04   0.8748712421E-01  -0.1411446887E-01   0.0000000000E+00  -0.4011526822E-02
   0.1539644328E+00   0.1132362725E+00   0.5880093687E-04  -0.7939153806E-05   0.1176018737E-03  -0.1587830761E-04   0.7311597827E-01  -0.1332983154E-01   0.0000000000E+00  -0.1233744890E-01
   0.1605282244E+00   0.1192941698E+00   0.5923111674E-04  -0.7933748204E-05   0.1184622335E-03  -0.1586749641E-04   0.7423072030E-01  -0.1187255419E-01   0.0000000000E+00  -0.1103596553E-01
   0.1502887943E+00   0.1206755331E+00   0.5623809581E-04  -0.9258971554E-05   0.1124761916E-03  -0.1851794311E-04   0.7708911687E-01  -0.1355537638E-01   0.0000000000E+00  -0.1025275573E-01
   0.1363497903E+00   0.1265030064E+00   0.5106875060E-04  -0.1191586839E-04   0.1021375012E-03  -0.2383173677E-04   0.8306887119E-01  -0.1499130829E-01   0.0000000000E+00  -0.7484886781E-02
   0.2220051179E+00   0.9726802948E-01   0.7642428819E-04  -0.2364506974E-05   0.1528485764E-03  -0.4729013948E-05   0.5747179731E-01   0.6603891091E-03   0.0000000000E+00  -0.1088077143E-01
   0.2471964935E+00   0.1059586999E+00   0.8034649178E-04  -0.2185710073E-05   0.1606929836E-03  -0.4371420145E-05   0.5951558757E-01   0.2994537779E-02   0.0000000000E+00  -0.8448810545E-02
   0.2383050640E+00   0.1003588117E+00   0.7918532630E-04  -0.2106773430E-05   0.1583706526E-03  -0.4213546860E-05   0.5800734129E-01   0.2458500230E-02   0.0000000000E+00  -0.9308597367E-02
   0.2558292493E+00   0.1110286148E+00   0.8159044754E-04  -0.2254071611E-05   0.1631808951E-03  -0.4508143222E-05   0.6084288766E-01   0.3473742357E-02   0.0000000000E+00  -0.7610941314E-02
   0.1747061984E+00   0.1171137628E+00   0.6320346148E-04  -0.6374744307E-05   0.1264069230E-03  -0.1274948861E-04   0.7037987518E-01  -0.9056593944E-02   0.0000000000E+00  -0.1146960014E-01
   0.1650895278E+00   0.1063733430E+00   0.6298561541E-04  -0.6091008099E-05   0.1259712308E-03  -0.1218201620E-04   0.6746145726E-01  -0.1103386521E-01   0.0000000000E+00  -0.1387386983E-01
   0.1660907841E+00   0.1158627299E+00   0.6132237906E-04  -0.7002709289E-05   0.1226447581E-03  -0.1400541858E-04   0.7127028095E-01  -0.1078065916E-01   0.0000000000E+00  -0.1184830811E-01
   0.1595270967E+00   0.1098049371E+00   0.6093189947E-04  -0.6970958822E-05   0.1218637989E-03  -0.1394191764E-04   0.7017097562E-01  -0.1213963927E-01   0.0000000000E+00  -0.1305782367E-01
   0.1775373155E+00   0.9960294614E-01   0.6712248592E-04  -0.4502321317E-05   0.1342449718E-03  -0.9004642634E-05   0.6184273740E-01  -0.7782320570E-02   0.0000000000E+00  -0.1431674383E-01
   0.1880983694E+00   0.9967230194E-01   0.6933947869E-04  -0.3884452598E-05   0.1386789574E-03  -0.7768905195E-05   0.6093880120E-01  -0.5601247821E-02   0.0000000000E+00  -0.1346444251E-01
   0.2308445387E+00   0.9607978945E-01   0.7823489645E-04  -0.2068650418E-05   0.1564697929E-03  -0.4137300836E-05   0.5683759679E-01   0.1892932446E-02   0.0000000000E+00  -0.1006990056E-01
   0.2400993671E+00   0.9153366497E-01   0.8041538302E-04  -0.1657642570E-05   0.1608307660E-03  -0.3315285141E-05   0.5521702779E-01   0.3556589498E-02   0.0000000000E+00  -0.9327278362E-02
   0.1552657935E+00   0.6209560028E-01   0.7090482739E-04  -0.2800440068E-05   0.1418096548E-03  -0.5600880136E-05   0.3967867906E-01  -0.9705034267E-02   0.0000000000E+00  -0.1864339271E-01
   0.1669890993E+00   0.6249330807E-01   0.7250277283E-04  -0.2220710336E-05   0.1450055457E-03  -0.4441420673E-05   0.4140312921E-01  -0.6597683747E-02   0.0000000000E+00  -0.1724868489E-01
   0.1186983099E+00   0.8000806235E-01   0.5942196236E-04  -0.8594616120E-05   0.1188439247E-03  -0.1718923224E-04   0.5831114133E-01  -0.1849534180E-01   0.0000000000E+00  -0.2032243926E-01
   0.1408947176E+00   0.1126828761E+00   0.5548420108E-04  -0.9458310949E-05   0.1109684022E-03  -0.1891662190E-04   0.7653670945E-01  -0.1567929205E-01   0.0000000000E+00  -0.1199792711E-01
   0.1451055364E+00   0.1033769279E+00   0.5882346236E-04  -0.7772360435E-05   0.1176469247E-03  -0.1554472087E-04   0.7018197693E-01  -0.1501321434E-01   0.0000000000E+00  -0.1466841338E-01
   0.1516400423E+00   0.1036534250E+00   0.6036442071E-04  -0.7080013015E-05   0.1207288414E-03  -0.1416002603E-04   0.6874753806E-01  -0.1365194525E-01   0.0000000000E+00  -0.1456302583E-01
   0.1474296362E+00   0.1129596876E+00   0.5716273276E-04  -0.8661147482E-05   0.1143254655E-03  -0.1732229496E-04   0.7466000145E-01  -0.1455358259E-01   0.0000000000E+00  -0.1223035446E-01
   0.1334906000E+00   0.1187871532E+00   0.5198267953E-04  -0.1132027813E-04   0.1039653591E-03  -0.2264055626E-04   0.8134692121E-01  -0.1593306517E-01   0.0000000000E+00  -0.9443613047E-02
   0.1346942498E+00   0.1078912521E+00   0.5499558828E-04  -0.9693961014E-05   0.1099911766E-03  -0.1938792203E-04   0.7597764533E-01  -0.1665585830E-01   0.0000000000E+00  -0.1316443641E-01
   0.1460039103E+00   0.8316913967E-01   0.6415709519E-04  -0.5391810161E-05   0.1283141904E-03  -0.1078362032E-04   0.5622201999E-01  -0.1413203642E-01   0.0000000000E+00  -0.1875066727E-01
   0.1572026221E+00   0.1002219811E+00   0.6246770496E-04  -0.6147621711E-05   0.1249354099E-03  -0.1229524342E-04   0.6579385456E-01  -0.1249356930E-01   0.0000000000E+00  -0.1522688161E-01
   0.1437537079E+00   0.1203987061E+00   0.5450864383E-04  -0.1006129893E-04   0.1090172877E-03  -0.2012259786E-04   0.7883153313E-01  -0.1447456007E-01   0.0000000000E+00  -0.9823617597E-02
   0.1554779740E+00   0.8305810372E-01   0.6607265448E-04  -0.4552359262E-05   0.1321453090E-03  -0.9104718524E-05   0.5557388112E-01  -0.1193579370E-01   0.0000000000E+00  -0.1797125374E-01
   0.1610361497E+00   0.9220114067E-01   0.6511357403E-04  -0.4992842971E-05   0.1302271481E-03  -0.9985685942E-05   0.6029104788E-01  -0.1130487138E-01   0.0000000000E+00  -0.1655805187E-01
   0.1689226742E+00   0.9835235460E-01   0.6550439533E-04  -0.4982999407E-05   0.1310087907E-03  -0.9965998814E-05   0.6273405699E-01  -0.9765820302E-02   0.0000000000E+00  -0.1500844250E-01
   0.1737045883E+00   0.1076242270E+00   0.6474343019E-04  -0.5515337319E-05   0.1294868604E-03  -0.1103067464E-04   0.6636395963E-01  -0.9312177684E-02   0.0000000000E+00  -0.1336489700E-01
   0.1521655527E+00   0.7215639101E-01   0.6807524428E-04  -0.3812563127E-05   0.1361504886E-03  -0.7625126255E-05   0.4759893154E-01  -0.1189443704E-01   0.0000000000E+00  -0.1951140883E-01
           1           4           6           6
           4           2           5           5
           5           3           6           6
           4           5           6           6
           7          10          12          12
          10           8          11          11
          11           9          12          12
          10          11          12          12
          13          16          18          18
          16          14          17          17
          17          15          18          18
          16          17          18          18
          19          22          24          24
          22          20          23          23
          23          21          24          24
          22          23          24          24
          25          27          29          29
          27          13          28          28
          28          26          29          29
          27          28          29          29
          30          33          35          35
          33          31          34          34
          34          32          35          35
          33          34          35          35
          36          38          40          40
          38          37          39          39
          39          19          40          40
          38          39          40          40
          41          44          46          46
          44          42          45          45
          45          43          46          46
          44          45          46          46
          47          49          51          51
          49          48          50          50
          50           2          51          51
          49          50          51          51
          52          53          54          54
          53          47          51          51
          51           2          54          54
          53          51          54          54
          55          57          59          59
          57           3          58          58
          58          56          59          59
          57          58          59          59
          60          63          65          65
          63          61          64          64
          64          62          65          65
          63          64          65          65
          66          69          71          71
          69          67          70          70
          70          68          71          71
          69          70          71          71
          72          73          75          75
          73          66          74          74
          74          52          75          75
          73          74          75          75
          76          78          80          80
          78          77          79          79
          79          41          80          80
          78          79          80          80
          55          59          82          82
          59          56          81          81
          81          14          82          82
          59          81          82          82
          83          84          85          85
          84          30          35          35
          35          32          85          85
          84          35          85          85
          86          89          91          91
          89          87          90          90
          90          88          91          91
          89          90          91          91
          92          94          96          96
          94          88          95          95
          95          93          96          96
          94          95          96          96
          97         100         102         102
         100          98         101         101
         101          99         102         102
         100         101         102         102
         103         105         107         107
         105         104         106         106
         106          92         107         107
         105         106         107         107
         108         111         113         113
         111         109         112         112
         112         110         113         113
         111         112         113         113
         114         117         119         119
         117         115         118         118
         118         116         119         119
         117         118         119         119
         120         123         125         125
         123         121         124         124
         124         122         125         125
         123         124         125         125
         126         129         131         131
         129         127         130         130
         130         128         131         131
         129         130         131         131
         132         135         137         137
         135         133         136         136
         136         134         137         137
         135         136         137         137
         138         140         142         142
         140         139         141         141
         141         126         142         142
         140         141         142         142
         134         144         146         146
         144          25         145         145
         145         143         146         146
         144         145         146         146
         147         150         152         152
         150         148         151         151
         151         149         152         152
         150         151         152         152
         153         155         157         157
         155         147         156         156
         156         154         157         157
         155         156         157         157
         158         161         163         163
         161         159         162         162
         162         160         163         163
         161         162         163         163
         164         167         169         169
         167         165         168         168
         168         166         169         169
         167         168         169         169
         165         172         174         174
         172         170         173         173
         173         171         174         174
         172         173         174         174
         170         176         173         173
         176         175         177         177
         177         171         173         173
         176         177         173         173
         178         179         181         181
         179         116         180         180
         180         108         181         181
         179         180         181         181
         182         185         187         187
         185         183         186         186
         186         184         187         187
         185         186         187         187
          99         190         192         192
         190         188         191         191
         191         189         192         192
         190         191         192         192
          98         194         101         101
         194         193         195         195
         195          99         101         101
         194         195         101         101
         196         198         200         200
         198         197         199         199
         199          98         200         200
         198         199         200         200
          92          96         202         202
          96          93         201         201
         201         196         202         202
          96         201         202         202
          77         204         206         206
         204         203         205         205
         205          42         206         206
         204         205         206         206
          41          79          44          44
          79          77         206         206
         206          42          44          44
          79         206          44          44
          76         208         210         210
         208          62         209         209
         209         207         210         210
         208         209         210         210
         211         212         214         214
         212           1         213         213
         213          55         214         214
         212         213         214         214
         215         217         219         219
         217         216         218         218
         218          62         219         219
         217         218         219         219
           9         221         223         223
         221         220         222         222
         222         215         223         223
         221         222         223         223
         224         226         228         228
         226         225         227         227
         227           7         228         228
         226         227         228         228
          21         230         232         232
         230         229         231         231
         231         224         232         232
         230         231         232         232
         233         234         235         235
         234          21         232         232
         232         224         235         235
         234         232         235         235
         236         238         240         240
         238         237         239         239
         239          19         240         240
         238         239         240         240
         241         243         245         245
         243         242         244         244
         244         236         245         245
         243         244         245         245
         246         248         250         250
         248         247         249         249
         249         241         250         250
         248         249         250         250
         251         253         255         255
         253         252         254         254
         254         246         255         255
         253         254         255         255
         256         258         260         260
         258         257         259         259
         259         251         260         260
         258         259         260         260
         261         263         265         265
         263         262         264         264
         264         256         265         265
         263         264         265         265
         266         268         270         270
         268         267         269         269
         269         261         270         270
         268         269         270         270
         153         157         272         272
         157         154         271         271
         271         266         272         272
         157         271         272         272
          14          81          17          17
          81          56         273         273
         273          15          17          17
          81         273          17          17
          13          18          28          28
          18          15         274         274
         274          26          28          28
          18         274          28          28
          25          29         145         145
          29          26         275         275
         275         143         145         145
          29         275         145         145
         276         279         281         281
         279         277         280         280
         280         278         281         281
         279         280         281         281
         128         130         284         284
         130         127         283         283
         283         282         284         284
         130         283         284         284
         114         285         117         117
         285         282         286         286
         286         115         117         117
         285         286         117         117
         134         146         288         288
         146         143         287         287
         287          30         288         288
         146         287         288         288
         289         292         294         294
         292         290         293         293
         293         291         294         294
         292         293         294         294
         295         298         300         300
         298         296         299         299
         299         297         300         300
         298         299         300         300
         297         303         305         305
         303         301         304         304
         304         302         305         305
         303         304         305         305
          66          71          74          74
          71          68         306         306
         306          52          74          74
          71         306          74          74
          52         306          53          53
         306          68         307         307
         307          47          53          53
         306         307          53          53
          60         308         310         310
         308          41         309         309
         309         295         310         310
         308         309         310         310
         302         311         312         312
         311          67          69          69
          69          66         312         312
         311          69         312         312
         313         315         317         317
         315         302         316         316
         316         314         317         317
         315         316         317         317
         302         304         311         311
         304         301         318         318
         318          67         311         311
         304         318         311         311
         319         320         321         321
         320         295         300         300
         300         297         321         321
         320         300         321         321
         297         299         303         303
         299         296         322         322
         322         301         303         303
         299         322         303         303
         295         309         323         323
         309          41          46          46
          46          43         323         323
         309          46         323         323
         295         323         298         298
         323          43         324         324
         324         296         298         298
         323         324         298         298
         211         326         328         328
         326         325         327         327
         327          72         328         328
         326         327         328         328
         329         330         331         331
         330           7          12          12
          12           9         331         331
         330          12         331         331
          83          85         334         334
          85          32         333         333
         333         332         334         334
          85         333         334         334
         335         337         339         339
         337         336         338         338
         338         138         339         339
         337         338         339         339
         116         118         341         341
         118         115         340         340
         340         109         341         341
         118         340         341         341
         189         343         345         345
         343         342         344         344
         344         184         345         345
         343         344         345         345
         184         348         350         350
         348         346         349         349
         349         347         350         350
         348         349         350         350
         114         351         285         285
         351         128         284         284
         284         282         285         285
         351         284         285         285
         126         141         129         129
         141         139         352         352
         352         127         129         129
         141         352         129         129
          37         353          39          39
         353         236         240         240
         240          19          39          39
         353         240          39          39
         354         356         358         358
         356         138         357         357
         357         355         358         358
         356         357         358         358
         138         338         140         140
         338         336         359         359
         359         139         140         140
         338         359         140         140
         360         361         363         363
         361         132         362         362
         362          83         363         363
         361         362         363         363
         335         364         337         337
         364         332         365         365
         365         336         337         337
         364         365         337         337
          83         366          84          84
         366         134         288         288
         288          30          84          84
         366         288          84          84
          83         334         367         367
         334         332         364         364
         364         335         367         367
         334         364         367         367
         347         349         369         369
         349         346         368         368
         368         175         369         369
         349         368         369         369
         370         371         372         372
         371         246         250         250
         250         241         372         372
         371         250         372         372
         122         124         374         374
         124         121         373         373
         373         183         374         374
         124         373         374         374
         184         344         348         348
         344         342         375         375
         375         346         348         348
         344         375         348         348
         121         376         377         377
         376          99         192         192
         192         189         377         377
         376         192         377         377
         189         191         343         343
         191         188         378         378
         378         342         343         343
         191         378         343         343
         379         381         383         383
         381         103         382         382
         382         380         383         383
         381         382         383         383
          99         195         190         190
         195         193         384         384
         384         188         190         190
         195         384         190         190
         385         386         387         387
         386          98         100         100
         100          97         387         387
         386         100         387         387
          98         199         194         194
         199         197         388         388
         388         193         194         194
         199         388         194         194
         103         389         391         391
         389         196         390         390
         390         385         391         391
         389         390         391         391
         196         201         198         198
         201          93         392         392
         392         197         198         198
         201         392         198         198
         104         393         106         106
         393          86         394         394
         394          92         106         106
         393         394         106         106
          92         394          94          94
         394          86          91          91
          91          88          94          94
         394          91          94          94
         395         397         399         399
         397          61         398         398
         398         396         399         399
         397         398         399         399
          62         218         209         209
         218         216         400         400
         400         207         209         209
         218         400         209         209
         401         402         404         404
         402         215         403         403
         403          61         404         404
         402         403         404         404
         215         222         217         217
         222         220         405         405
         405         216         217         217
         222         405         217         217
         406         408         410         410
         408         407         409         409
         409         329         410         410
         408         409         410         410
           9          11         221         221
          11           8         411         411
         411         220         221         221
          11         411         221         221
         412         415         417         417
         415         413         416         416
         416         414         417         417
         415         416         417         417
           7         227          10          10
         227         225         418         418
         418           8          10          10
         227         418          10          10
         419         421         423         423
         421          13         422         422
         422         420         423         423
         421         422         423         423
         224         231         226         226
         231         229         424         424
         424         225         226         226
         231         424         226         226
          36         425         426         426
         425          21         234         234
         234         233         426         426
         425         234         426         426
          21          23         230         230
          23          20         427         427
         427         229         230         230
          23         427         230         230
         428         429         430         430
         429         370         372         372
         372         241         430         430
         429         372         430         430
          19         239          22          22
         239         237         431         431
         431          20          22          22
         239         431          22          22
         428         432         433         433
         432         236         353         353
         353          37         433         433
         432         353         433         433
         236         244         238         238
         244         242         434         434
         434         237         238         238
         244         434         238         238
         435         437         439         439
         437         114         438         438
         438         436         439         439
         437         438         439         439
         241         249         243         243
         249         247         440         440
         440         242         243         243
         249         440         243         243
         441         442         443         443
         442         158         163         163
         163         160         443         443
         442         163         443         443
         246         254         248         248
         254         252         444         444
         444         247         248         248
         254         444         248         248
         445         446         447         447
         446         246         371         371
         371         370         447         447
         446         371         447         447
         251         259         253         253
         259         257         448         448
         448         252         253         253
         259         448         253         253
         164         169         451         451
         169         166         450         450
         450         449         451         451
         169         450         451         451
         256         264         258         258
         264         262         452         452
         452         257         258         258
         264         452         258         258
         166         168         455         455
         168         165         454         454
         454         453         455         455
         168         454         455         455
         261         269         263         263
         269         267         456         456
         456         262         263         263
         269         456         263         263
         457         458         460         460
         458         261         459         459
         459         159         460         460
         458         459         460         460
         266         271         268         268
         271         154         461         461
         461         267         268         268
         271         461         268         268
         462         463         465         465
         463         148         464         464
         464         153         465         465
         463         464         465         465
         153         464         155         155
         464         148         150         150
         150         147         155         155
         464         150         155         155
         314         316         466         466
         316         302         312         312
         312          66         466         466
         316         312         466         466
         325         468         470         470
         468         467         469         469
         469         314         470         470
         468         469         470         470
         396         471         473         473
         471          60         472         472
         472         319         473         473
         471         472         473         473
         313         474         475         475
         474         319         321         321
         321         297         475         475
         474         321         475         475
         313         475         315         315
         475         297         305         305
         305         302         315         315
         475         305         315         315
         395         476         478         478
         476         406         477         477
         477         401         478         478
         476         477         478         478
         170         479         176         176
         479         347         369         369
         369         175         176         176
         479         369         176         176
         165         174         454         454
         174         171         480         480
         480         453         454         454
         174         480         454         454
         183         481         186         186
         481         189         345         345
         345         184         186         186
         481         345         186         186
         482         485         487         487
         485         483         486         486
         486         484         487         487
         485         486         487         487
         166         455         490         490
         455         453         489         489
         489         488         490         490
         455         489         490         490
         491         493         495         495
         493         492         494         494
         494         164         495         495
         493         494         495         495
         182         187         496         496
         187         184         350         350
         350         347         496         496
         187         350         496         496
         497         498         499         499
         498         122         374         374
         374         183         499         499
         498         374         499         499
         121         500         376         376
         500          97         102         102
         102          99         376         376
         500         102         376         376
         121         377         373         373
         377         189         481         481
         481         183         373         373
         377         481         373         373
         501         503         505         505
         503         380         504         504
         504         502         505         505
         503         504         505         505
         385         390         386         386
         390         196         200         200
         200          98         386         386
         390         200         386         386
         462         506         507         507
         506         166         490         490
         490         488         507         507
         506         490         507         507
         449         508         509         509
         508         153         272         272
         272         266         509         509
         508         272         509         509
         510         511         512         512
         511         347         479         479
         479         170         512         512
         511         479         512         512
         513         515         517         517
         515         370         516         516
         516         514         517         517
         515         516         517         517
         462         507         463         463
         507         488         518         518
         518         148         463         463
         507         518         463         463
         449         519         508         508
         519         462         465         465
         465         153         508         508
         519         465         508         508
         159         459         520         520
         459         261         265         265
         265         256         520         520
         459         265         520         520
         521         522         523         523
         522         256         260         260
         260         251         523         523
         522         260         523         523
         524         525         526         526
         525         224         228         228
         228           7         526         526
         525         228         526         526
         420         422         527         527
         422          13          27          27
          27          25         527         527
         422          27         527         527
         401         528         402         402
         528           9         223         223
         223         215         402         402
         528         223         402         402
         277         531         533         533
         531         529         532         532
         532         530         533         533
         531         532         533         533
          36          40         425         425
          40          19          24          24
          24          21         425         425
          40          24         425         425
         435         534         437         437
         534         128         351         351
         351         114         437         437
         534         351         437         437
         428         430         432         432
         430         241         245         245
         245         236         432         432
         430         245         432         432
         535         536         538         538
         536         355         537         537
         537         126         538         538
         536         537         538         538
         277         541         543         543
         541         539         542         542
         542         540         543         543
         541         542         543         543
         540         545         547         547
         545         544         546         546
         546          37         547         547
         545         546         547         547
         548         550         552         552
         550         535         551         551
         551         549         552         552
         550         551         552         552
         514         553         555         555
         553         428         554         554
         554         544         555         555
         553         554         555         555
         513         557         559         559
         557         556         558         558
         558         445         559         559
         557         558         559         559
         445         560         446         446
         560         251         255         255
         255         246         446         446
         560         255         446         446
          61         403          64          64
         403         215         219         219
         219          62          64          64
         403         219          64          64
         561         562         563         563
         562         319         474         474
         474         313         563         563
         562         474         563         563
          76         210          78          78
         210         207         564         564
         564          77          78          78
         210         564          78          78
          60         565         308         308
         565          76          80          80
          80          41         308         308
         565          80         308         308
         561         566         562         562
         566         396         473         473
         473         319         562         562
         566         473         562         562
         401         567         528         528
         567         329         331         331
         331           9         528         528
         567         331         528         528
         524         568         525         525
         568         233         235         235
         235         224         525         525
         568         235         525         525
         524         526         569         569
         526           7         330         330
         330         329         569         569
         526         330         569         569
         521         570         522         522
         570         159         520         520
         520         256         522         522
         570         520         522         522
         521         523         571         571
         523         251         560         560
         560         445         571         571
         523         560         571         571
         164         573         167         167
         573         572         574         574
         574         165         167         167
         573         574         167         167
         457         575         458         458
         575         266         270         270
         270         261         458         458
         575         270         458         458
           1         576           4           4
         576          52          54          54
          54           2           4           4
         576          54           4           4
           1           6         213         213
           6           3          57          57
          57          55         213         213
           6          57         213         213
         108         180         111         111
         180         116         341         341
         341         109         111         111
         180         341         111         111
         577         578         579         579
         578         108         113         113
         113         110         579         579
         578         113         579         579
         577         579         582         582
         579         110         581         581
         581         580         582         582
         579         581         582         582
         104         583         584         584
         583         577         582         582
         582         580         584         584
         583         582         584         584
         436         438         585         585
         438         114         119         119
         119         116         585         585
         438         119         585         585
         586         588         590         590
         588         483         589         589
         589         587         590         590
         588         589         590         590
         355         357         537         537
         357         138         142         142
         142         126         537         537
         357         142         537         537
         535         538         591         591
         538         126         131         131
         131         128         591         591
         538         131         591         591
         435         592         534         534
         592         535         591         591
         591         128         534         534
         592         591         534         534
         548         594         596         596
         594         593         595         595
         595         355         596         596
         594         595         596         596
         597         600         602         602
         600         598         601         601
         601         599         602         602
         600         601         602         602
         603         604         606         606
         604         549         605         605
         605         435         606         606
         604         605         606         606
         132         137         362         362
         137         134         366         366
         366          83         362         362
         137         366         362         362
         354         607         356         356
         607         335         339         339
         339         138         356         356
         607         339         356         356
         104         584         393         393
         584         580         608         608
         608          86         393         393
         584         608         393         393
         103         107         389         389
         107          92         202         202
         202         196         389         389
         107         202         389         389
          60          65         565         565
          65          62         208         208
         208          76         565         565
          65         208         565         565
          60         310         472         472
         310         295         320         320
         320         319         472         472
         310         320         472         472
         380         382         609         609
         382         103         391         391
         391         385         609         609
         382         391         609         609
         103         610         105         105
         610         577         583         583
         583         104         105         105
         610         583         105         105
         611         612         613         613
         612          55          82          82
          82          14         613         613
         612          82         613         613
         419         614         421         421
         614          14          16          16
          16          13         421         421
         614          16         421         421
         530         617         619         619
         617         615         618         618
         618         616         619         619
         617         618         619         619
         133         620         621         621
         620         420         527         527
         527          25         621         621
         620         527         621         621
         133         621         136         136
         621          25         144         144
         144         134         136         136
         621         144         136         136
         622         623         625         625
         623         354         624         624
         624         593         625         625
         623         624         625         625
         615         626         628         628
         626         524         627         627
         627         407         628         628
         626         627         628         628
         419         629         614         614
         629         611         613         613
         613          14         614         614
         629         613         614         614
          72         630          73          73
         630         314         466         466
         466          66          73          73
         630         466          73          73
          72          75         631         631
          75          52         576         576
         576           1         631         631
          75         576         631         631
         449         450         519         519
         450         166         506         506
         506         462         519         519
         450         506         519         519
         449         509         632         632
         509         266         575         575
         575         457         632         632
         509         575         632         632
         396         398         471         471
         398          61          63          63
          63          60         471         471
         398          63         471         471
         467         633         469         469
         633         313         317         317
         317         314         469         469
         633         317         469         469
         467         634         633         633
         634         561         563         563
         563         313         633         633
         634         563         633         633
         635         636         637         637
         636         467         468         468
         468         325         637         637
         636         468         637         637
         325         470         327         327
         470         314         630         630
         630          72         327         327
         470         630         327         327
         638         641         643         643
         641         639         642         642
         642         640         643         643
         641         642         643         643
         379         644         381         381
         644         577         610         610
         610         103         381         381
         644         610         381         381
         502         645         646         646
         645         385         387         387
         387          97         646         646
         645         387         646         646
         211         328         212         212
         328          72         631         631
         631           1         212         212
         328         631         212         212
         647         648         650         650
         648         616         649         649
         649         407         650         650
         648         649         650         650
         492         652         654         654
         652         651         653         653
         653         572         654         654
         652         653         654         654
         572         655         574         574
         655         170         172         172
         172         165         574         574
         655         172         574         574
         491         656         657         657
         656         449         632         632
         632         457         657         657
         656         632         657         657
         658         660         662         662
         660         659         661         661
         661         651         662         662
         660         661         662         662
         497         499         663         663
         499         183         185         185
         185         182         663         663
         499         185         663         663
         599         665         667         667
         665         664         666         666
         666         549         667         667
         665         666         667         667
         668         669         671         671
         669         182         670         670
         670         510         671         671
         669         670         671         671
         513         559         515         515
         559         445         447         447
         447         370         515         515
         559         447         515         515
         586         673         675         675
         673         501         674         674
         674         672         675         675
         673         674         675         675
         120         676         123         123
         676          97         500         500
         500         121         123         123
         676         500         123         123
         502         504         645         645
         504         380         609         609
         609         385         645         645
         504         609         645         645
         502         646         677         677
         646          97         676         676
         676         120         677         677
         646         676         677         677
         510         670         511         511
         670         182         496         496
         496         347         511         511
         670         496         511         511
         510         512         678         678
         512         170         655         655
         655         572         678         678
         512         655         678         678
         544         554         546         546
         554         428         433         433
         433          37         546         546
         554         433         546         546
         540         547         679         679
         547          37          38          38
          38          36         679         679
         547          38         679         679
         407         627         409         409
         627         524         569         569
         569         329         409         409
         627         569         409         409
         406         410         477         477
         410         329         567         567
         567         401         477         477
         410         567         477         477
         529         680         681         681
         680          36         426         426
         426         233         681         681
         680         426         681         681
         682         685         687         687
         685         683         686         686
         686         684         687         687
         685         686         687         687
         395         478         397         397
         478         401         404         404
         404          61         397         397
         478         404         397         397
         640         642         689         689
         642         639         688         688
         688         395         689         689
         642         688         689         689
         160         162         690         690
         162         159         570         570
         570         521         690         690
         162         570         690         690
         556         691         558         558
         691         521         571         571
         571         445         558         558
         691         571         558         558
         692         693         695         695
         693         544         694         694
         694         539         695         695
         693         694         695         695
         514         516         553         553
         516         370         429         429
         429         428         553         553
         516         429         553         553
         696         698         700         700
         698         556         699         699
         699         697         700         700
         698         699         700         700
         556         701         691         691
         701         160         690         690
         690         521         691         691
         701         690         691         691
         615         702         626         626
         702         233         568         568
         568         524         626         626
         702         568         626         626
         616         618         649         649
         618         615         628         628
         628         407         649         649
         618         628         649         649
         491         703         493         493
         703         158         704         704
         704         492         493         493
         703         704         493         493
         158         705         161         161
         705         457         460         460
         460         159         161         161
         705         460         161         161
         529         706         680         680
         706         540         679         679
         679          36         680         680
         706         679         680         680
         529         681         707         707
         681         233         702         702
         702         615         707         707
         681         702         707         707
         692         708         693         693
         708         514         555         555
         555         544         693         693
         708         555         693         693
         709         712         714         714
         712         710         713         713
         713         711         714         714
         712         713         714         714
         395         399         715         715
         399         396         566         566
         566         561         715         715
         399         566         715         715
         638         643         717         717
         643         640         716         716
         716         635         717         717
         643         716         717         717
         211         214         718         718
         214          55         612         612
         612         611         718         718
         214         612         718         718
         719         720         721         721
         720         211         718         718
         718         611         721         721
         720         718         721         721
         178         722         179         179
         722         436         585         585
         585         116         179         179
         722         585         179         179
         379         723         724         724
         723         178         181         181
         181         108         724         724
         723         181         724         724
         549         551         605         605
         551         535         592         592
         592         435         605         605
         551         592         605         605
         603         606         725         725
         606         435         439         439
         439         436         725         725
         606         439         725         725
         593         624         595         595
         624         354         358         358
         358         355         595         595
         624         358         595         595
         548         596         550         550
         596         355         536         536
         536         535         550         550
         596         536         550         550
         692         727         708         708
         727         726         728         728
         728         514         708         708
         727         728         708         708
         664         729         731         731
         729         290         730         730
         730         548         731         731
         729         730         731         731
         732         733         734         734
         733         436         722         722
         722         178         734         734
         733         722         734         734
         735         736         737         737
         736         120         125         125
         125         122         737         737
         736         125         737         737
         360         363         738         738
         363          83         367         367
         367         335         738         738
         363         367         738         738
         360         739         361         361
         739         622         740         740
         740         132         361         361
         739         740         361         361
         379         724         644         644
         724         108         578         578
         578         577         644         644
         724         578         644         644
         501         741         503         503
         741         379         383         383
         383         380         503         503
         741         383         503         503
         501         742         741         741
         742         178         723         723
         723         379         741         741
         742         723         741         741
         672         743         744         744
         743         120         736         736
         736         735         744         744
         743         736         744         744
         745         746         748         748
         746         133         747         747
         747         622         748         748
         746         747         748         748
         622         747         740         740
         747         133         135         135
         135         132         740         740
         747         135         740         740
         719         749         720         720
         749         325         326         326
         326         211         720         720
         749         326         720         720
         413         751         753         753
         751         750         752         752
         752         616         753         753
         751         752         753         753
         754         756         758         758
         756         755         757         757
         757         659         758         758
         756         757         758         758
         651         759         653         653
         759         510         678         678
         678         572         653         653
         759         678         653         653
         760         761         762         762
         761         122         498         498
         498         497         762         762
         761         498         762         762
         760         763         761         761
         763         735         737         737
         737         122         761         761
         763         737         761         761
         672         674         764         764
         674         501         505         505
         505         502         764         764
         674         505         764         764
         672         764         743         743
         764         502         677         677
         677         120         743         743
         764         677         743         743
         492         654         494         494
         654         572         573         573
         573         164         494         494
         654         573         494         494
         441         765         442         442
         765         492         704         704
         704         158         442         442
         765         704         442         442
         755         766         768         768
         766         497         767         767
         767         668         768         768
         766         767         768         768
         697         699         769         769
         699         556         557         557
         557         513         769         769
         699         557         769         769
         668         767         669         669
         767         497         663         663
         663         182         669         669
         767         663         669         669
         668         671         770         770
         671         510         759         759
         759         651         770         770
         671         759         770         770
         491         495         656         656
         495         164         451         451
         451         449         656         656
         495         451         656         656
         491         657         703         703
         657         457         705         705
         705         158         703         703
         657         705         703         703
         726         771         728         728
         771         513         517         517
         517         514         728         728
         771         517         728         728
         772         774         776         776
         774         773         775         775
         775         697         776         776
         774         775         776         776
         647         650         777         777
         650         407         408         408
         408         406         777         777
         650         408         777         777
         750         778         752         752
         778         530         619         619
         619         616         752         752
         778         619         752         752
         779         782         784         784
         782         780         783         783
         783         781         784         784
         782         783         784         784
         530         532         617         617
         532         529         707         707
         707         615         617         617
         532         707         617         617
         785         786         788         788
         786         441         787         787
         787         696         788         788
         786         787         788         788
         696         789         698         698
         789         160         701         701
         701         556         698         698
         789         701         698         698
         658         790         791         791
         790         492         765         765
         765         441         791         791
         790         765         791         791
         441         443         787         787
         443         160         789         789
         789         696         787         787
         443         789         787         787
         539         694         542         542
         694         544         545         545
         545         540         542         542
         694         545         542         542
         277         543         531         531
         543         540         706         706
         706         529         531         531
         543         706         531         531
         639         792         793         793
         792         647         777         777
         777         406         793         793
         792         777         793         793
         414         794         795         795
         794         638         717         717
         717         635         795         795
         794         717         795         795
         598         797         799         799
         797         796         798         798
         798         664         799         799
         797         798         799         799
         726         800         771         771
         800         697         769         769
         769         513         771         771
         800         769         771         771
         278         801         802         802
         801         530         778         778
         778         750         802         802
         801         778         802         802
         803         804         805         805
         804         278         802         802
         802         750         805         805
         804         802         805         805
         639         793         688         688
         793         406         476         476
         476         395         688         688
         793         476         688         688
         640         689         806         806
         689         395         715         715
         715         561         806         806
         689         715         806         806
         807         808         810         810
         808         539         809         809
         809         276         810         810
         808         809         810         810
         811         813         815         815
         813         807         814         814
         814         812         815         815
         813         814         815         815
         719         816         749         749
         816         635         637         637
         637         325         749         749
         816         637         749         749
         817         818         819         819
         818         611         629         629
         629         419         819         819
         818         629         819         819
         732         820         733         733
         820         603         725         725
         725         436         733         733
         820         725         733         733
         732         734         821         821
         734         178         742         742
         742         501         821         821
         734         742         821         821
         290         822         730         730
         822         593         594         594
         594         548         730         730
         822         594         730         730
         664         731         666         666
         731         548         552         552
         552         549         666         666
         731         552         666         666
         599         667         823         823
         667         549         604         604
         604         603         823         823
         667         604         823         823
         824         825         827         827
         825         692         826         826
         826         807         827         827
         825         826         827         827
         587         828         829         829
         828         603         820         820
         820         732         829         829
         828         820         829         829
         484         486         831         831
         486         483         830         830
         830         735         831         831
         486         830         831         831
         640         806         832         832
         806         561         634         634
         634         467         832         832
         806         634         832         832
         640         832         716         716
         832         467         636         636
         636         635         716         716
         832         636         716         716
         754         758         834         834
         758         659         833         833
         833         785         834         834
         758         833         834         834
         659         835         661         661
         835         668         770         770
         770         651         661         661
         835         770         661         661
         483         836         830         830
         836         672         744         744
         744         735         830         830
         836         744         830         830
         484         831         837         837
         831         735         763         763
         763         760         837         837
         831         763         837         837
         838         839         841         841
         839         760         840         840
         840         755         841         841
         839         840         841         841
         842         844         846         846
         844         711         845         845
         845         843         846         846
         844         845         846         846
         658         662         790         790
         662         651         652         652
         652         492         790         790
         662         652         790         790
         785         847         786         786
         847         658         791         791
         791         441         786         786
         847         791         786         786
         413         753         848         848
         753         616         648         648
         648         647         848         848
         753         648         848         848
         849         851         853         853
         851         412         852         852
         852         850         853         853
         851         852         853         853
         773         854         775         775
         854         696         700         700
         700         697         775         775
         854         700         775         775
         772         776         855         855
         776         697         800         800
         800         726         855         855
         776         800         855         855
         360         738         856         856
         738         335         607         607
         607         354         856         856
         738         607         856         856
         360         856         739         739
         856         354         623         623
         623         622         739         739
         856         623         739         739
         785         833         847         847
         833         659         660         660
         660         658         847         847
         833         660         847         847
         785         788         857         857
         788         696         854         854
         854         773         857         857
         788         854         857         857
         683         859         686         686
         859         858         860         860
         860         684         686         686
         859         860         686         686
         278         280         801         801
         280         277         533         533
         533         530         801         801
         280         533         801         801
         638         861         862         862
         861         413         848         848
         848         647         862         862
         861         848         862         862
         863         864         866         866
         864         719         865         865
         865         817         866         866
         864         865         866         866
         824         867         825         825
         867         726         727         727
         727         692         825         825
         867         727         825         825
         868         869         870         870
         869         842         846         846
         846         843         870         870
         869         846         870         870
         638         862         641         641
         862         647         792         792
         792         639         641         641
         862         792         641         641
         414         795         871         871
         795         635         816         816
         816         719         871         871
         795         816         871         871
         872         873         874         874
         873         278         804         804
         804         803         874         874
         873         804         874         874
         276         809         279         279
         809         539         541         541
         541         277         279         279
         809         541         279         279
         812         875         877         877
         875         276         876         876
         876         872         877         877
         875         876         877         877
         807         826         808         808
         826         692         695         695
         695         539         808         808
         826         695         808         808
         878         879         881         881
         879         780         880         880
         880         843         881         881
         879         880         881         881
         824         882         867         867
         882         772         855         855
         855         726         867         867
         882         855         867         867
         755         840         766         766
         840         760         762         762
         762         497         766         766
         840         762         766         766
         755         768         757         757
         768         668         835         835
         835         659         757         757
         768         835         757         757
         587         883         828         828
         883         599         823         823
         823         603         828         828
         883         823         828         828
         586         590         884         884
         590         587         829         829
         829         732         884         884
         590         829         884         884
         796         885         798         798
         885         290         729         729
         729         664         798         798
         885         729         798         798
         598         799         601         601
         799         664         665         665
         665         599         601         601
         799         665         601         601
         597         602         886         886
         602         599         883         883
         883         587         886         886
         602         883         886         886
         887         888         890         890
         888         710         889         889
         889         772         890         890
         888         889         890         890
         586         884         673         673
         884         732         821         821
         821         501         673         673
         884         821         673         673
         586         675         588         588
         675         672         836         836
         836         483         588         588
         675         836         588         588
         817         865         818         818
         865         719         721         721
         721         611         818         818
         865         721         818         818
         414         416         794         794
         416         413         861         861
         861         638         794         794
         416         861         794         794
         858         891         892         892
         891         817         819         819
         819         419         892         892
         891         819         892         892
         863         893         894         894
         893         412         417         417
         417         414         894         894
         893         417         894         894
         709         895         896         896
         895         785         857         857
         857         773         896         896
         895         857         896         896
         709         714         898         898
         714         711         897         897
         897         754         898         898
         714         897         898         898
         412         899         900         900
         899         803         805         805
         805         750         900         900
         899         805         900         900
         901         902         903         903
         902         872         874         874
         874         803         903         903
         902         874         903         903
         412         900         415         415
         900         750         751         751
         751         413         415         415
         900         751         415         415
         849         853         905         905
         853         850         904         904
         904         858         905         905
         853         904         905         905
         710         906         889         889
         906         773         774         774
         774         772         889         889
         906         774         889         889
         887         890         907         907
         890         772         882         882
         882         824         907         907
         890         882         907         907
         908         909         910         910
         909         872         902         902
         902         901         910         910
         909         902         910         910
         872         876         873         873
         876         276         281         281
         281         278         873         873
         876         281         873         873
         811         911         813         813
         911         824         827         827
         827         807         813         813
         911         827         813         813
         878         881         913         913
         881         843         912         912
         912         887         913         913
         881         912         913         913
         781         914         916         916
         914         878         915         915
         915         811         916         916
         914         915         916         916
         812         814         875         875
         814         807         810         810
         810         276         875         875
         814         810         875         875
         781         917         919         919
         917         812         918         918
         918         908         919         919
         917         918         919         919
         811         920         911         911
         920         887         907         907
         907         824         911         911
         920         907         911         911
         838         921         839         839
         921         484         837         837
         837         760         839         839
         921         837         839         839
         838         841         922         922
         841         755         756         756
         756         754         922         922
         841         756         922         922
         482         923         485         485
         923         587         589         589
         589         483         485         485
         923         589         485         485
         842         924         844         844
         924         838         925         925
         925         711         844         844
         924         925         844         844
         745         926         746         746
         926         682         927         927
         927         133         746         746
         926         927         746         746
         291         293         928         928
         293         290         885         885
         885         796         928         928
         293         885         928         928
         863         894         864         864
         894         414         871         871
         871         719         864         864
         894         871         864         864
         850         929         930         930
         929         863         866         866
         866         817         930         930
         929         866         930         930
         780         931         932         932
         931         796         797         797
         797         598         932         932
         931         797         932         932
         868         870         933         933
         870         843         880         880
         880         780         933         933
         870         880         933         933
         684         934         935         935
         934         419         423         423
         423         420         935         935
         934         423         935         935
         936         937         938         938
         937         683         685         685
         685         682         938         938
         937         685         938         938
         850         852         929         929
         852         412         893         893
         893         863         929         929
         852         893         929         929
         850         930         904         904
         930         817         891         891
         891         858         904         904
         930         891         904         904
         711         925         897         897
         925         838         922         922
         922         754         897         897
         925         922         897         897
         843         845         939         939
         845         711         713         713
         713         710         939         939
         845         713         939         939
         683         940         859         859
         940         849         905         905
         905         858         859         859
         940         905         859         859
         849         941         851         851
         941         803         899         899
         899         412         851         851
         941         899         851         851
         942         943         944         944
         943         908         910         910
         910         901         944         944
         943         910         944         944
         901         903         945         945
         903         803         941         941
         941         849         945         945
         903         941         945         945
         843         939         912         912
         939         710         888         888
         888         887         912         912
         939         888         912         912
         868         933         946         946
         933         780         932         932
         932         598         946         946
         933         932         946         946
         482         947         948         948
         947         842         869         869
         869         868         948         948
         947         869         948         948
         842         949         924         924
         949         484         921         921
         921         838         924         924
         949         921         924         924
         779         784         950         950
         784         781         919         919
         919         908         950         950
         784         919         950         950
         908         918         909         909
         918         812         877         877
         877         872         909         909
         918         877         909         909
         878         913         915         915
         913         887         920         920
         920         811         915         915
         913         920         915         915
         781         916         917         917
         916         811         815         815
         815         812         917         917
         916         815         917         917
         951         952         953         953
         952         908         943         943
         943         942         953         953
         952         943         953         953
         781         783         914         914
         783         780         879         879
         879         878         914         914
         783         879         914         914
         779         954         955         955
         954         291         928         928
         928         796         955         955
         954         928         955         955
         779         955         782         782
         955         796         931         931
         931         780         782         782
         955         931         782         782
         868         946         956         956
         946         598         600         600
         600         597         956         956
         946         600         956         956
         482         948         957         957
         948         868         956         956
         956         597         957         957
         948         956         957         957
         289         958         959         959
         958         622         625         625
         625         593         959         959
         958         625         959         959
         289         959         292         292
         959         593         822         822
         822         290         292         292
         959         822         292         292
         709         898         895         895
         898         754         834         834
         834         785         895         895
         898         834         895         895
         709         896         712         712
         896         773         906         906
         906         710         712         712
         896         906         712         712
         684         860         934         934
         860         858         892         892
         892         419         934         934
         860         892         934         934
         682         687         960         960
         687         684         935         935
         935         420         960         960
         687         935         960         960
         961         962         964         964
         962         936         963         963
         963         942         964         964
         962         963         964         964
         961         965         966         966
         965         849         940         940
         940         683         966         966
         965         940         966         966
         682         960         927         927
         960         420         620         620
         620         133         927         927
         960         620         927         927
         745         967         926         926
         967         936         938         938
         938         682         926         926
         967         938         926         926
         951         953         968         968
         953         942         963         963
         963         936         968         968
         953         963         968         968
         961         964         969         969
         964         942         944         944
         944         901         969         969
         964         944         969         969
         482         957         923         923
         957         597         886         886
         886         587         923         923
         957         886         923         923
         482         487         947         947
         487         484         949         949
         949         842         947         947
         487         949         947         947
         936         970         971         971
         970         289         294         294
         294         291         971         971
         970         294         971         971
         951         968         972         972
         968         936         971         971
         971         291         972         972
         968         971         972         972
         961         969         965         965
         969         901         945         945
         945         849         965         965
         969         945         965         965
         961         966         962         962
         966         683         937         937
         937         936         962         962
         966         937         962         962
         951         972         973         973
         972         291         954         954
         954         779         973         973
         972         954         973         973
         951         973         952         952
         973         779         950         950
         950         908         952         952
         973         950         952         952
         745         748         974         974
         748         622         958         958
         958         289         974         974
         748         958         974         974
         745         974         967         967
         974         289         970         970
         970         936         967         967
         974         970         967         967
